\ENCODING=ISO-8859-1
\Problem name: IloCplex

Minimize
 obj: 23.35788 T_0#0 + 20.5461 T_1#1 + 19.20204 T_2#2 + 18.29673 T_3#3
      + 25.58124 T_4#4 + 26.67789 T_5#5 + 11.66157 T_6#6 + 13.23198 T_7#7
      + 20.73375 T_8#8 + 16.1811 T_9#9 + s_0,0#10 + s_0,1#11 + s_0,2#12
      + s_0,3#13 + s_0,4#14 + s_1,0#15 + s_1,1#16 + s_1,2#17 + s_1,3#18
      + s_1,4#19 + s_2,0#20 + s_2,1#21 + s_2,2#22 + s_2,3#23 + s_2,4#24
      + s_3,0#25 + s_3,1#26 + s_3,2#27 + s_3,3#28 + s_3,4#29 + s_4,0#30
      + s_4,1#31 + s_4,2#32 + s_4,3#33 + s_4,4#34 + s_5,0#35 + s_5,1#36
      + s_5,2#37 + s_5,3#38 + s_5,4#39 + s_6,0#40 + s_6,1#41 + s_6,2#42
      + s_6,3#43 + s_6,4#44 + s_7,0#45 + s_7,1#46 + s_7,2#47 + s_7,3#48
      + s_7,4#49 + s_8,0#50 + s_8,1#51 + s_8,2#52 + s_8,3#53 + s_8,4#54
      + s_9,0#55 + s_9,1#56 + s_9,2#57 + s_9,3#58 + s_9,4#59
Subject To
 R03_(j0o0i0)#0:       x_0,0,4#60 + x_0,1,4#61 + x_0,2,4#62 + x_0,3,4#63
                       + x_0,4,4#64 + x_0,5,4#65 + x_0,6,4#66 + x_0,7,4#67
                       + x_0,8,4#68 + x_0,9,4#69  = 1
 R03_(j0o1i0)#1:       x_0,0,3#70 + x_0,1,3#71 + x_0,2,3#72 + x_0,3,3#73
                       + x_0,4,3#74 + x_0,5,3#75 + x_0,6,3#76 + x_0,7,3#77
                       + x_0,8,3#78 + x_0,9,3#79  = 1
 R03_(j0o4i0)#2:       x_0,0,5#80 + x_0,1,5#81 + x_0,2,5#82 + x_0,3,5#83
                       + x_0,4,5#84 + x_0,5,5#85 + x_0,6,5#86 + x_0,7,5#87
                       + x_0,8,5#88 + x_0,9,5#89  = 1
 R03_(j1o0i0)#3:       x_1,0,4#90 + x_1,1,4#91 + x_1,2,4#92 + x_1,3,4#93
                       + x_1,4,4#94 + x_1,5,4#95 + x_1,6,4#96 + x_1,7,4#97
                       + x_1,8,4#98 + x_1,9,4#99  = 1
 R03_(j1o1i0)#4:       x_1,0,3#100 + x_1,1,3#101 + x_1,2,3#102 + x_1,3,3#103
                       + x_1,4,3#104 + x_1,5,3#105 + x_1,6,3#106 + x_1,7,3#107
                       + x_1,8,3#108 + x_1,9,3#109  = 1
 R03_(j1o4i0)#5:       x_1,0,5#110 + x_1,1,5#111 + x_1,2,5#112 + x_1,3,5#113
                       + x_1,4,5#114 + x_1,5,5#115 + x_1,6,5#116 + x_1,7,5#117
                       + x_1,8,5#118 + x_1,9,5#119  = 1
 R03_(j2o0i0)#6:       x_2,0,4#120 + x_2,1,4#121 + x_2,2,4#122 + x_2,3,4#123
                       + x_2,4,4#124 + x_2,5,4#125 + x_2,6,4#126 + x_2,7,4#127
                       + x_2,8,4#128 + x_2,9,4#129  = 1
 R03_(j2o1i0)#7:       x_2,0,3#130 + x_2,1,3#131 + x_2,2,3#132 + x_2,3,3#133
                       + x_2,4,3#134 + x_2,5,3#135 + x_2,6,3#136 + x_2,7,3#137
                       + x_2,8,3#138 + x_2,9,3#139  = 1
 R03_(j2o4i0)#8:       x_2,0,5#140 + x_2,1,5#141 + x_2,2,5#142 + x_2,3,5#143
                       + x_2,4,5#144 + x_2,5,5#145 + x_2,6,5#146 + x_2,7,5#147
                       + x_2,8,5#148 + x_2,9,5#149  = 1
 R03_(j3o0i0)#9:       x_3,0,4#150 + x_3,1,4#151 + x_3,2,4#152 + x_3,3,4#153
                       + x_3,4,4#154 + x_3,5,4#155 + x_3,6,4#156 + x_3,7,4#157
                       + x_3,8,4#158 + x_3,9,4#159  = 1
 R03_(j3o1i0)#10:      x_3,0,3#160 + x_3,1,3#161 + x_3,2,3#162 + x_3,3,3#163
                       + x_3,4,3#164 + x_3,5,3#165 + x_3,6,3#166 + x_3,7,3#167
                       + x_3,8,3#168 + x_3,9,3#169  = 1
 R03_(j3o4i0)#11:      x_3,0,5#170 + x_3,1,5#171 + x_3,2,5#172 + x_3,3,5#173
                       + x_3,4,5#174 + x_3,5,5#175 + x_3,6,5#176 + x_3,7,5#177
                       + x_3,8,5#178 + x_3,9,5#179  = 1
 R03_(j4o0i0)#12:      x_4,0,4#180 + x_4,1,4#181 + x_4,2,4#182 + x_4,3,4#183
                       + x_4,4,4#184 + x_4,5,4#185 + x_4,6,4#186 + x_4,7,4#187
                       + x_4,8,4#188 + x_4,9,4#189  = 1
 R03_(j4o1i0)#13:      x_4,0,3#190 + x_4,1,3#191 + x_4,2,3#192 + x_4,3,3#193
                       + x_4,4,3#194 + x_4,5,3#195 + x_4,6,3#196 + x_4,7,3#197
                       + x_4,8,3#198 + x_4,9,3#199  = 1
 R03_(j4o4i0)#14:      x_4,0,5#200 + x_4,1,5#201 + x_4,2,5#202 + x_4,3,5#203
                       + x_4,4,5#204 + x_4,5,5#205 + x_4,6,5#206 + x_4,7,5#207
                       + x_4,8,5#208 + x_4,9,5#209  = 1
 R03_(j5o0i0)#15:      x_5,0,4#210 + x_5,1,4#211 + x_5,2,4#212 + x_5,3,4#213
                       + x_5,4,4#214 + x_5,5,4#215 + x_5,6,4#216 + x_5,7,4#217
                       + x_5,8,4#218 + x_5,9,4#219  = 1
 R03_(j5o1i0)#16:      x_5,0,3#220 + x_5,1,3#221 + x_5,2,3#222 + x_5,3,3#223
                       + x_5,4,3#224 + x_5,5,3#225 + x_5,6,3#226 + x_5,7,3#227
                       + x_5,8,3#228 + x_5,9,3#229  = 1
 R03_(j5o4i0)#17:      x_5,0,5#230 + x_5,1,5#231 + x_5,2,5#232 + x_5,3,5#233
                       + x_5,4,5#234 + x_5,5,5#235 + x_5,6,5#236 + x_5,7,5#237
                       + x_5,8,5#238 + x_5,9,5#239  = 1
 R03_(j6o0i0)#18:      x_6,0,4#240 + x_6,1,4#241 + x_6,2,4#242 + x_6,3,4#243
                       + x_6,4,4#244 + x_6,5,4#245 + x_6,6,4#246 + x_6,7,4#247
                       + x_6,8,4#248 + x_6,9,4#249  = 1
 R03_(j6o1i0)#19:      x_6,0,3#250 + x_6,1,3#251 + x_6,2,3#252 + x_6,3,3#253
                       + x_6,4,3#254 + x_6,5,3#255 + x_6,6,3#256 + x_6,7,3#257
                       + x_6,8,3#258 + x_6,9,3#259  = 1
 R03_(j6o4i0)#20:      x_6,0,5#260 + x_6,1,5#261 + x_6,2,5#262 + x_6,3,5#263
                       + x_6,4,5#264 + x_6,5,5#265 + x_6,6,5#266 + x_6,7,5#267
                       + x_6,8,5#268 + x_6,9,5#269  = 1
 R03_(j7o0i0)#21:      x_7,0,4#270 + x_7,1,4#271 + x_7,2,4#272 + x_7,3,4#273
                       + x_7,4,4#274 + x_7,5,4#275 + x_7,6,4#276 + x_7,7,4#277
                       + x_7,8,4#278 + x_7,9,4#279  = 1
 R03_(j7o1i0)#22:      x_7,0,3#280 + x_7,1,3#281 + x_7,2,3#282 + x_7,3,3#283
                       + x_7,4,3#284 + x_7,5,3#285 + x_7,6,3#286 + x_7,7,3#287
                       + x_7,8,3#288 + x_7,9,3#289  = 1
 R03_(j7o4i0)#23:      x_7,0,5#290 + x_7,1,5#291 + x_7,2,5#292 + x_7,3,5#293
                       + x_7,4,5#294 + x_7,5,5#295 + x_7,6,5#296 + x_7,7,5#297
                       + x_7,8,5#298 + x_7,9,5#299  = 1
 R03_(j8o0i0)#24:      x_8,0,4#300 + x_8,1,4#301 + x_8,2,4#302 + x_8,3,4#303
                       + x_8,4,4#304 + x_8,5,4#305 + x_8,6,4#306 + x_8,7,4#307
                       + x_8,8,4#308 + x_8,9,4#309  = 1
 R03_(j8o1i0)#25:      x_8,0,3#310 + x_8,1,3#311 + x_8,2,3#312 + x_8,3,3#313
                       + x_8,4,3#314 + x_8,5,3#315 + x_8,6,3#316 + x_8,7,3#317
                       + x_8,8,3#318 + x_8,9,3#319  = 1
 R03_(j8o4i0)#26:      x_8,0,5#320 + x_8,1,5#321 + x_8,2,5#322 + x_8,3,5#323
                       + x_8,4,5#324 + x_8,5,5#325 + x_8,6,5#326 + x_8,7,5#327
                       + x_8,8,5#328 + x_8,9,5#329  = 1
 R03_(j9o0i0)#27:      x_9,0,4#330 + x_9,1,4#331 + x_9,2,4#332 + x_9,3,4#333
                       + x_9,4,4#334 + x_9,5,4#335 + x_9,6,4#336 + x_9,7,4#337
                       + x_9,8,4#338 + x_9,9,4#339  = 1
 R03_(j9o1i0)#28:      x_9,0,3#340 + x_9,1,3#341 + x_9,2,3#342 + x_9,3,3#343
                       + x_9,4,3#344 + x_9,5,3#345 + x_9,6,3#346 + x_9,7,3#347
                       + x_9,8,3#348 + x_9,9,3#349  = 1
 R03_(j9o4i0)#29:      x_9,0,5#350 + x_9,1,5#351 + x_9,2,5#352 + x_9,3,5#353
                       + x_9,4,5#354 + x_9,5,5#355 + x_9,6,5#356 + x_9,7,5#357
                       + x_9,8,5#358 + x_9,9,5#359  = 1
 R04_(o0b0l0)#30:      x_0,0,4#60 + x_1,0,4#90 + x_2,0,4#120 + x_3,0,4#150
                       + x_4,0,4#180 + x_5,0,4#210 + x_6,0,4#240 + x_7,0,4#270
                       + x_8,0,4#300 + x_9,0,4#330 <= 2
 R04_(o0b1l0)#31:      x_0,1,4#61 + x_1,1,4#91 + x_2,1,4#121 + x_3,1,4#151
                       + x_4,1,4#181 + x_5,1,4#211 + x_6,1,4#241 + x_7,1,4#271
                       + x_8,1,4#301 + x_9,1,4#331 <= 2
 R04_(o0b2l0)#32:      x_0,2,4#62 + x_1,2,4#92 + x_2,2,4#122 + x_3,2,4#152
                       + x_4,2,4#182 + x_5,2,4#212 + x_6,2,4#242 + x_7,2,4#272
                       + x_8,2,4#302 + x_9,2,4#332 <= 2
 R04_(o0b3l0)#33:      x_0,3,4#63 + x_1,3,4#93 + x_2,3,4#123 + x_3,3,4#153
                       + x_4,3,4#183 + x_5,3,4#213 + x_6,3,4#243 + x_7,3,4#273
                       + x_8,3,4#303 + x_9,3,4#333 <= 2
 R04_(o0b4l0)#34:      x_0,4,4#64 + x_1,4,4#94 + x_2,4,4#124 + x_3,4,4#154
                       + x_4,4,4#184 + x_5,4,4#214 + x_6,4,4#244 + x_7,4,4#274
                       + x_8,4,4#304 + x_9,4,4#334 <= 2
 R04_(o0b5l0)#35:      x_0,5,4#65 + x_1,5,4#95 + x_2,5,4#125 + x_3,5,4#155
                       + x_4,5,4#185 + x_5,5,4#215 + x_6,5,4#245 + x_7,5,4#275
                       + x_8,5,4#305 + x_9,5,4#335 <= 2
 R04_(o0b6l0)#36:      x_0,6,4#66 + x_1,6,4#96 + x_2,6,4#126 + x_3,6,4#156
                       + x_4,6,4#186 + x_5,6,4#216 + x_6,6,4#246 + x_7,6,4#276
                       + x_8,6,4#306 + x_9,6,4#336 <= 2
 R04_(o0b7l0)#37:      x_0,7,4#67 + x_1,7,4#97 + x_2,7,4#127 + x_3,7,4#157
                       + x_4,7,4#187 + x_5,7,4#217 + x_6,7,4#247 + x_7,7,4#277
                       + x_8,7,4#307 + x_9,7,4#337 <= 2
 R04_(o0b8l0)#38:      x_0,8,4#68 + x_1,8,4#98 + x_2,8,4#128 + x_3,8,4#158
                       + x_4,8,4#188 + x_5,8,4#218 + x_6,8,4#248 + x_7,8,4#278
                       + x_8,8,4#308 + x_9,8,4#338 <= 2
 R04_(o0b9l0)#39:      x_0,9,4#69 + x_1,9,4#99 + x_2,9,4#129 + x_3,9,4#159
                       + x_4,9,4#189 + x_5,9,4#219 + x_6,9,4#249 + x_7,9,4#279
                       + x_8,9,4#309 + x_9,9,4#339 <= 2
 R04_(o1b0l0)#40:      x_0,0,3#70 + x_1,0,3#100 + x_2,0,3#130 + x_3,0,3#160
                       + x_4,0,3#190 + x_5,0,3#220 + x_6,0,3#250 + x_7,0,3#280
                       + x_8,0,3#310 + x_9,0,3#340 <= 3
 R04_(o1b1l0)#41:      x_0,1,3#71 + x_1,1,3#101 + x_2,1,3#131 + x_3,1,3#161
                       + x_4,1,3#191 + x_5,1,3#221 + x_6,1,3#251 + x_7,1,3#281
                       + x_8,1,3#311 + x_9,1,3#341 <= 3
 R04_(o1b2l0)#42:      x_0,2,3#72 + x_1,2,3#102 + x_2,2,3#132 + x_3,2,3#162
                       + x_4,2,3#192 + x_5,2,3#222 + x_6,2,3#252 + x_7,2,3#282
                       + x_8,2,3#312 + x_9,2,3#342 <= 3
 R04_(o1b3l0)#43:      x_0,3,3#73 + x_1,3,3#103 + x_2,3,3#133 + x_3,3,3#163
                       + x_4,3,3#193 + x_5,3,3#223 + x_6,3,3#253 + x_7,3,3#283
                       + x_8,3,3#313 + x_9,3,3#343 <= 3
 R04_(o1b4l0)#44:      x_0,4,3#74 + x_1,4,3#104 + x_2,4,3#134 + x_3,4,3#164
                       + x_4,4,3#194 + x_5,4,3#224 + x_6,4,3#254 + x_7,4,3#284
                       + x_8,4,3#314 + x_9,4,3#344 <= 3
 R04_(o1b5l0)#45:      x_0,5,3#75 + x_1,5,3#105 + x_2,5,3#135 + x_3,5,3#165
                       + x_4,5,3#195 + x_5,5,3#225 + x_6,5,3#255 + x_7,5,3#285
                       + x_8,5,3#315 + x_9,5,3#345 <= 3
 R04_(o1b6l0)#46:      x_0,6,3#76 + x_1,6,3#106 + x_2,6,3#136 + x_3,6,3#166
                       + x_4,6,3#196 + x_5,6,3#226 + x_6,6,3#256 + x_7,6,3#286
                       + x_8,6,3#316 + x_9,6,3#346 <= 3
 R04_(o1b7l0)#47:      x_0,7,3#77 + x_1,7,3#107 + x_2,7,3#137 + x_3,7,3#167
                       + x_4,7,3#197 + x_5,7,3#227 + x_6,7,3#257 + x_7,7,3#287
                       + x_8,7,3#317 + x_9,7,3#347 <= 3
 R04_(o1b8l0)#48:      x_0,8,3#78 + x_1,8,3#108 + x_2,8,3#138 + x_3,8,3#168
                       + x_4,8,3#198 + x_5,8,3#228 + x_6,8,3#258 + x_7,8,3#288
                       + x_8,8,3#318 + x_9,8,3#348 <= 3
 R04_(o1b9l0)#49:      x_0,9,3#79 + x_1,9,3#109 + x_2,9,3#139 + x_3,9,3#169
                       + x_4,9,3#199 + x_5,9,3#229 + x_6,9,3#259 + x_7,9,3#289
                       + x_8,9,3#319 + x_9,9,3#349 <= 3
 R04_(o4b0l0)#50:      x_0,0,5#80 + x_1,0,5#110 + x_2,0,5#140 + x_3,0,5#170
                       + x_4,0,5#200 + x_5,0,5#230 + x_6,0,5#260 + x_7,0,5#290
                       + x_8,0,5#320 + x_9,0,5#350 <= 3
 R04_(o4b1l0)#51:      x_0,1,5#81 + x_1,1,5#111 + x_2,1,5#141 + x_3,1,5#171
                       + x_4,1,5#201 + x_5,1,5#231 + x_6,1,5#261 + x_7,1,5#291
                       + x_8,1,5#321 + x_9,1,5#351 <= 3
 R04_(o4b2l0)#52:      x_0,2,5#82 + x_1,2,5#112 + x_2,2,5#142 + x_3,2,5#172
                       + x_4,2,5#202 + x_5,2,5#232 + x_6,2,5#262 + x_7,2,5#292
                       + x_8,2,5#322 + x_9,2,5#352 <= 3
 R04_(o4b3l0)#53:      x_0,3,5#83 + x_1,3,5#113 + x_2,3,5#143 + x_3,3,5#173
                       + x_4,3,5#203 + x_5,3,5#233 + x_6,3,5#263 + x_7,3,5#293
                       + x_8,3,5#323 + x_9,3,5#353 <= 3
 R04_(o4b4l0)#54:      x_0,4,5#84 + x_1,4,5#114 + x_2,4,5#144 + x_3,4,5#174
                       + x_4,4,5#204 + x_5,4,5#234 + x_6,4,5#264 + x_7,4,5#294
                       + x_8,4,5#324 + x_9,4,5#354 <= 3
 R04_(o4b5l0)#55:      x_0,5,5#85 + x_1,5,5#115 + x_2,5,5#145 + x_3,5,5#175
                       + x_4,5,5#205 + x_5,5,5#235 + x_6,5,5#265 + x_7,5,5#295
                       + x_8,5,5#325 + x_9,5,5#355 <= 3
 R04_(o4b6l0)#56:      x_0,6,5#86 + x_1,6,5#116 + x_2,6,5#146 + x_3,6,5#176
                       + x_4,6,5#206 + x_5,6,5#236 + x_6,6,5#266 + x_7,6,5#296
                       + x_8,6,5#326 + x_9,6,5#356 <= 3
 R04_(o4b7l0)#57:      x_0,7,5#87 + x_1,7,5#117 + x_2,7,5#147 + x_3,7,5#177
                       + x_4,7,5#207 + x_5,7,5#237 + x_6,7,5#267 + x_7,7,5#297
                       + x_8,7,5#327 + x_9,7,5#357 <= 3
 R04_(o4b8l0)#58:      x_0,8,5#88 + x_1,8,5#118 + x_2,8,5#148 + x_3,8,5#178
                       + x_4,8,5#208 + x_5,8,5#238 + x_6,8,5#268 + x_7,8,5#298
                       + x_8,8,5#328 + x_9,8,5#358 <= 3
 R04_(o4b9l0)#59:      x_0,9,5#89 + x_1,9,5#119 + x_2,9,5#149 + x_3,9,5#179
                       + x_4,9,5#209 + x_5,9,5#239 + x_6,9,5#269 + x_7,9,5#299
                       + x_8,9,5#329 + x_9,9,5#359 <= 3
 R06_(o0b0l0)#60:      y_0,0,4#360  = 1
 R06_(o0b1l0)#61:      y_0,1,4#361  = 1
 R06_(o0b2l0)#62:      y_0,2,4#362  = 1
 R06_(o0b3l0)#63:      y_0,3,4#363  = 1
 R06_(o0b4l0)#64:      y_0,4,4#364  = 1
 R06_(o0b5l0)#65:      y_0,5,4#365  = 1
 R06_(o0b6l0)#66:      y_0,6,4#366  = 1
 R06_(o0b7l0)#67:      y_0,7,4#367  = 1
 R06_(o0b8l0)#68:      y_0,8,4#368  = 1
 R06_(o0b9l0)#69:      y_0,9,4#369  = 1
 R06_(o1b0l0)#70:      y_0,0,3#370  = 1
 R06_(o1b1l0)#71:      y_0,1,3#371  = 1
 R06_(o1b2l0)#72:      y_0,2,3#372  = 1
 R06_(o1b3l0)#73:      y_0,3,3#373  = 1
 R06_(o1b4l0)#74:      y_0,4,3#374  = 1
 R06_(o1b5l0)#75:      y_0,5,3#375  = 1
 R06_(o1b6l0)#76:      y_0,6,3#376  = 1
 R06_(o1b7l0)#77:      y_0,7,3#377  = 1
 R06_(o1b8l0)#78:      y_0,8,3#378  = 1
 R06_(o1b9l0)#79:      y_0,9,3#379  = 1
 R06_(o4b0l0)#80:      y_0,0,5#380  = 1
 R06_(o4b1l0)#81:      y_0,1,5#381  = 1
 R06_(o4b2l0)#82:      y_0,2,5#382  = 1
 R06_(o4b3l0)#83:      y_0,3,5#383  = 1
 R06_(o4b4l0)#84:      y_0,4,5#384  = 1
 R06_(o4b5l0)#85:      y_0,5,5#385  = 1
 R06_(o4b6l0)#86:      y_0,6,5#386  = 1
 R06_(o4b7l0)#87:      y_0,7,5#387  = 1
 R06_(o4b8l0)#88:      y_0,8,5#388  = 1
 R06_(o4b9l0)#89:      y_0,9,5#389  = 1
 R07_(j0b0o0l0i0)#90:  x_0,0,4#60 - y_0,0,4#360 <= 0
 R07_(j0b0o1l0i0)#91:  x_0,0,3#70 - y_0,0,3#370 <= 0
 R07_(j0b0o4l0i0)#92:  x_0,0,5#80 - y_0,0,5#380 <= 0
 R07_(j0b1o0l0i0)#93:  x_0,1,4#61 - y_0,1,4#361 <= 0
 R07_(j0b1o1l0i0)#94:  x_0,1,3#71 - y_0,1,3#371 <= 0
 R07_(j0b1o4l0i0)#95:  x_0,1,5#81 - y_0,1,5#381 <= 0
 R07_(j0b2o0l0i0)#96:  x_0,2,4#62 - y_0,2,4#362 <= 0
 R07_(j0b2o1l0i0)#97:  x_0,2,3#72 - y_0,2,3#372 <= 0
 R07_(j0b2o4l0i0)#98:  x_0,2,5#82 - y_0,2,5#382 <= 0
 R07_(j0b3o0l0i0)#99:  x_0,3,4#63 - y_0,3,4#363 <= 0
 R07_(j0b3o1l0i0)#100: x_0,3,3#73 - y_0,3,3#373 <= 0
 R07_(j0b3o4l0i0)#101: x_0,3,5#83 - y_0,3,5#383 <= 0
 R07_(j0b4o0l0i0)#102: x_0,4,4#64 - y_0,4,4#364 <= 0
 R07_(j0b4o1l0i0)#103: x_0,4,3#74 - y_0,4,3#374 <= 0
 R07_(j0b4o4l0i0)#104: x_0,4,5#84 - y_0,4,5#384 <= 0
 R07_(j0b5o0l0i0)#105: x_0,5,4#65 - y_0,5,4#365 <= 0
 R07_(j0b5o1l0i0)#106: x_0,5,3#75 - y_0,5,3#375 <= 0
 R07_(j0b5o4l0i0)#107: x_0,5,5#85 - y_0,5,5#385 <= 0
 R07_(j0b6o0l0i0)#108: x_0,6,4#66 - y_0,6,4#366 <= 0
 R07_(j0b6o1l0i0)#109: x_0,6,3#76 - y_0,6,3#376 <= 0
 R07_(j0b6o4l0i0)#110: x_0,6,5#86 - y_0,6,5#386 <= 0
 R07_(j0b7o0l0i0)#111: x_0,7,4#67 - y_0,7,4#367 <= 0
 R07_(j0b7o1l0i0)#112: x_0,7,3#77 - y_0,7,3#377 <= 0
 R07_(j0b7o4l0i0)#113: x_0,7,5#87 - y_0,7,5#387 <= 0
 R07_(j0b8o0l0i0)#114: x_0,8,4#68 - y_0,8,4#368 <= 0
 R07_(j0b8o1l0i0)#115: x_0,8,3#78 - y_0,8,3#378 <= 0
 R07_(j0b8o4l0i0)#116: x_0,8,5#88 - y_0,8,5#388 <= 0
 R07_(j0b9o0l0i0)#117: x_0,9,4#69 - y_0,9,4#369 <= 0
 R07_(j0b9o1l0i0)#118: x_0,9,3#79 - y_0,9,3#379 <= 0
 R07_(j0b9o4l0i0)#119: x_0,9,5#89 - y_0,9,5#389 <= 0
 R07_(j1b0o0l0i0)#120: x_1,0,4#90 - y_0,0,4#360 <= 0
 R07_(j1b0o1l0i0)#121: x_1,0,3#100 - y_0,0,3#370 <= 0
 R07_(j1b0o4l0i0)#122: x_1,0,5#110 - y_0,0,5#380 <= 0
 R07_(j1b1o0l0i0)#123: x_1,1,4#91 - y_0,1,4#361 <= 0
 R07_(j1b1o1l0i0)#124: x_1,1,3#101 - y_0,1,3#371 <= 0
 R07_(j1b1o4l0i0)#125: x_1,1,5#111 - y_0,1,5#381 <= 0
 R07_(j1b2o0l0i0)#126: x_1,2,4#92 - y_0,2,4#362 <= 0
 R07_(j1b2o1l0i0)#127: x_1,2,3#102 - y_0,2,3#372 <= 0
 R07_(j1b2o4l0i0)#128: x_1,2,5#112 - y_0,2,5#382 <= 0
 R07_(j1b3o0l0i0)#129: x_1,3,4#93 - y_0,3,4#363 <= 0
 R07_(j1b3o1l0i0)#130: x_1,3,3#103 - y_0,3,3#373 <= 0
 R07_(j1b3o4l0i0)#131: x_1,3,5#113 - y_0,3,5#383 <= 0
 R07_(j1b4o0l0i0)#132: x_1,4,4#94 - y_0,4,4#364 <= 0
 R07_(j1b4o1l0i0)#133: x_1,4,3#104 - y_0,4,3#374 <= 0
 R07_(j1b4o4l0i0)#134: x_1,4,5#114 - y_0,4,5#384 <= 0
 R07_(j1b5o0l0i0)#135: x_1,5,4#95 - y_0,5,4#365 <= 0
 R07_(j1b5o1l0i0)#136: x_1,5,3#105 - y_0,5,3#375 <= 0
 R07_(j1b5o4l0i0)#137: x_1,5,5#115 - y_0,5,5#385 <= 0
 R07_(j1b6o0l0i0)#138: x_1,6,4#96 - y_0,6,4#366 <= 0
 R07_(j1b6o1l0i0)#139: x_1,6,3#106 - y_0,6,3#376 <= 0
 R07_(j1b6o4l0i0)#140: x_1,6,5#116 - y_0,6,5#386 <= 0
 R07_(j1b7o0l0i0)#141: x_1,7,4#97 - y_0,7,4#367 <= 0
 R07_(j1b7o1l0i0)#142: x_1,7,3#107 - y_0,7,3#377 <= 0
 R07_(j1b7o4l0i0)#143: x_1,7,5#117 - y_0,7,5#387 <= 0
 R07_(j1b8o0l0i0)#144: x_1,8,4#98 - y_0,8,4#368 <= 0
 R07_(j1b8o1l0i0)#145: x_1,8,3#108 - y_0,8,3#378 <= 0
 R07_(j1b8o4l0i0)#146: x_1,8,5#118 - y_0,8,5#388 <= 0
 R07_(j1b9o0l0i0)#147: x_1,9,4#99 - y_0,9,4#369 <= 0
 R07_(j1b9o1l0i0)#148: x_1,9,3#109 - y_0,9,3#379 <= 0
 R07_(j1b9o4l0i0)#149: x_1,9,5#119 - y_0,9,5#389 <= 0
 R07_(j2b0o0l0i0)#150: x_2,0,4#120 - y_0,0,4#360 <= 0
 R07_(j2b0o1l0i0)#151: x_2,0,3#130 - y_0,0,3#370 <= 0
 R07_(j2b0o4l0i0)#152: x_2,0,5#140 - y_0,0,5#380 <= 0
 R07_(j2b1o0l0i0)#153: x_2,1,4#121 - y_0,1,4#361 <= 0
 R07_(j2b1o1l0i0)#154: x_2,1,3#131 - y_0,1,3#371 <= 0
 R07_(j2b1o4l0i0)#155: x_2,1,5#141 - y_0,1,5#381 <= 0
 R07_(j2b2o0l0i0)#156: x_2,2,4#122 - y_0,2,4#362 <= 0
 R07_(j2b2o1l0i0)#157: x_2,2,3#132 - y_0,2,3#372 <= 0
 R07_(j2b2o4l0i0)#158: x_2,2,5#142 - y_0,2,5#382 <= 0
 R07_(j2b3o0l0i0)#159: x_2,3,4#123 - y_0,3,4#363 <= 0
 R07_(j2b3o1l0i0)#160: x_2,3,3#133 - y_0,3,3#373 <= 0
 R07_(j2b3o4l0i0)#161: x_2,3,5#143 - y_0,3,5#383 <= 0
 R07_(j2b4o0l0i0)#162: x_2,4,4#124 - y_0,4,4#364 <= 0
 R07_(j2b4o1l0i0)#163: x_2,4,3#134 - y_0,4,3#374 <= 0
 R07_(j2b4o4l0i0)#164: x_2,4,5#144 - y_0,4,5#384 <= 0
 R07_(j2b5o0l0i0)#165: x_2,5,4#125 - y_0,5,4#365 <= 0
 R07_(j2b5o1l0i0)#166: x_2,5,3#135 - y_0,5,3#375 <= 0
 R07_(j2b5o4l0i0)#167: x_2,5,5#145 - y_0,5,5#385 <= 0
 R07_(j2b6o0l0i0)#168: x_2,6,4#126 - y_0,6,4#366 <= 0
 R07_(j2b6o1l0i0)#169: x_2,6,3#136 - y_0,6,3#376 <= 0
 R07_(j2b6o4l0i0)#170: x_2,6,5#146 - y_0,6,5#386 <= 0
 R07_(j2b7o0l0i0)#171: x_2,7,4#127 - y_0,7,4#367 <= 0
 R07_(j2b7o1l0i0)#172: x_2,7,3#137 - y_0,7,3#377 <= 0
 R07_(j2b7o4l0i0)#173: x_2,7,5#147 - y_0,7,5#387 <= 0
 R07_(j2b8o0l0i0)#174: x_2,8,4#128 - y_0,8,4#368 <= 0
 R07_(j2b8o1l0i0)#175: x_2,8,3#138 - y_0,8,3#378 <= 0
 R07_(j2b8o4l0i0)#176: x_2,8,5#148 - y_0,8,5#388 <= 0
 R07_(j2b9o0l0i0)#177: x_2,9,4#129 - y_0,9,4#369 <= 0
 R07_(j2b9o1l0i0)#178: x_2,9,3#139 - y_0,9,3#379 <= 0
 R07_(j2b9o4l0i0)#179: x_2,9,5#149 - y_0,9,5#389 <= 0
 R07_(j3b0o0l0i0)#180: x_3,0,4#150 - y_0,0,4#360 <= 0
 R07_(j3b0o1l0i0)#181: x_3,0,3#160 - y_0,0,3#370 <= 0
 R07_(j3b0o4l0i0)#182: x_3,0,5#170 - y_0,0,5#380 <= 0
 R07_(j3b1o0l0i0)#183: x_3,1,4#151 - y_0,1,4#361 <= 0
 R07_(j3b1o1l0i0)#184: x_3,1,3#161 - y_0,1,3#371 <= 0
 R07_(j3b1o4l0i0)#185: x_3,1,5#171 - y_0,1,5#381 <= 0
 R07_(j3b2o0l0i0)#186: x_3,2,4#152 - y_0,2,4#362 <= 0
 R07_(j3b2o1l0i0)#187: x_3,2,3#162 - y_0,2,3#372 <= 0
 R07_(j3b2o4l0i0)#188: x_3,2,5#172 - y_0,2,5#382 <= 0
 R07_(j3b3o0l0i0)#189: x_3,3,4#153 - y_0,3,4#363 <= 0
 R07_(j3b3o1l0i0)#190: x_3,3,3#163 - y_0,3,3#373 <= 0
 R07_(j3b3o4l0i0)#191: x_3,3,5#173 - y_0,3,5#383 <= 0
 R07_(j3b4o0l0i0)#192: x_3,4,4#154 - y_0,4,4#364 <= 0
 R07_(j3b4o1l0i0)#193: x_3,4,3#164 - y_0,4,3#374 <= 0
 R07_(j3b4o4l0i0)#194: x_3,4,5#174 - y_0,4,5#384 <= 0
 R07_(j3b5o0l0i0)#195: x_3,5,4#155 - y_0,5,4#365 <= 0
 R07_(j3b5o1l0i0)#196: x_3,5,3#165 - y_0,5,3#375 <= 0
 R07_(j3b5o4l0i0)#197: x_3,5,5#175 - y_0,5,5#385 <= 0
 R07_(j3b6o0l0i0)#198: x_3,6,4#156 - y_0,6,4#366 <= 0
 R07_(j3b6o1l0i0)#199: x_3,6,3#166 - y_0,6,3#376 <= 0
 R07_(j3b6o4l0i0)#200: x_3,6,5#176 - y_0,6,5#386 <= 0
 R07_(j3b7o0l0i0)#201: x_3,7,4#157 - y_0,7,4#367 <= 0
 R07_(j3b7o1l0i0)#202: x_3,7,3#167 - y_0,7,3#377 <= 0
 R07_(j3b7o4l0i0)#203: x_3,7,5#177 - y_0,7,5#387 <= 0
 R07_(j3b8o0l0i0)#204: x_3,8,4#158 - y_0,8,4#368 <= 0
 R07_(j3b8o1l0i0)#205: x_3,8,3#168 - y_0,8,3#378 <= 0
 R07_(j3b8o4l0i0)#206: x_3,8,5#178 - y_0,8,5#388 <= 0
 R07_(j3b9o0l0i0)#207: x_3,9,4#159 - y_0,9,4#369 <= 0
 R07_(j3b9o1l0i0)#208: x_3,9,3#169 - y_0,9,3#379 <= 0
 R07_(j3b9o4l0i0)#209: x_3,9,5#179 - y_0,9,5#389 <= 0
 R07_(j4b0o0l0i0)#210: x_4,0,4#180 - y_0,0,4#360 <= 0
 R07_(j4b0o1l0i0)#211: x_4,0,3#190 - y_0,0,3#370 <= 0
 R07_(j4b0o4l0i0)#212: x_4,0,5#200 - y_0,0,5#380 <= 0
 R07_(j4b1o0l0i0)#213: x_4,1,4#181 - y_0,1,4#361 <= 0
 R07_(j4b1o1l0i0)#214: x_4,1,3#191 - y_0,1,3#371 <= 0
 R07_(j4b1o4l0i0)#215: x_4,1,5#201 - y_0,1,5#381 <= 0
 R07_(j4b2o0l0i0)#216: x_4,2,4#182 - y_0,2,4#362 <= 0
 R07_(j4b2o1l0i0)#217: x_4,2,3#192 - y_0,2,3#372 <= 0
 R07_(j4b2o4l0i0)#218: x_4,2,5#202 - y_0,2,5#382 <= 0
 R07_(j4b3o0l0i0)#219: x_4,3,4#183 - y_0,3,4#363 <= 0
 R07_(j4b3o1l0i0)#220: x_4,3,3#193 - y_0,3,3#373 <= 0
 R07_(j4b3o4l0i0)#221: x_4,3,5#203 - y_0,3,5#383 <= 0
 R07_(j4b4o0l0i0)#222: x_4,4,4#184 - y_0,4,4#364 <= 0
 R07_(j4b4o1l0i0)#223: x_4,4,3#194 - y_0,4,3#374 <= 0
 R07_(j4b4o4l0i0)#224: x_4,4,5#204 - y_0,4,5#384 <= 0
 R07_(j4b5o0l0i0)#225: x_4,5,4#185 - y_0,5,4#365 <= 0
 R07_(j4b5o1l0i0)#226: x_4,5,3#195 - y_0,5,3#375 <= 0
 R07_(j4b5o4l0i0)#227: x_4,5,5#205 - y_0,5,5#385 <= 0
 R07_(j4b6o0l0i0)#228: x_4,6,4#186 - y_0,6,4#366 <= 0
 R07_(j4b6o1l0i0)#229: x_4,6,3#196 - y_0,6,3#376 <= 0
 R07_(j4b6o4l0i0)#230: x_4,6,5#206 - y_0,6,5#386 <= 0
 R07_(j4b7o0l0i0)#231: x_4,7,4#187 - y_0,7,4#367 <= 0
 R07_(j4b7o1l0i0)#232: x_4,7,3#197 - y_0,7,3#377 <= 0
 R07_(j4b7o4l0i0)#233: x_4,7,5#207 - y_0,7,5#387 <= 0
 R07_(j4b8o0l0i0)#234: x_4,8,4#188 - y_0,8,4#368 <= 0
 R07_(j4b8o1l0i0)#235: x_4,8,3#198 - y_0,8,3#378 <= 0
 R07_(j4b8o4l0i0)#236: x_4,8,5#208 - y_0,8,5#388 <= 0
 R07_(j4b9o0l0i0)#237: x_4,9,4#189 - y_0,9,4#369 <= 0
 R07_(j4b9o1l0i0)#238: x_4,9,3#199 - y_0,9,3#379 <= 0
 R07_(j4b9o4l0i0)#239: x_4,9,5#209 - y_0,9,5#389 <= 0
 R07_(j5b0o0l0i0)#240: x_5,0,4#210 - y_0,0,4#360 <= 0
 R07_(j5b0o1l0i0)#241: x_5,0,3#220 - y_0,0,3#370 <= 0
 R07_(j5b0o4l0i0)#242: x_5,0,5#230 - y_0,0,5#380 <= 0
 R07_(j5b1o0l0i0)#243: x_5,1,4#211 - y_0,1,4#361 <= 0
 R07_(j5b1o1l0i0)#244: x_5,1,3#221 - y_0,1,3#371 <= 0
 R07_(j5b1o4l0i0)#245: x_5,1,5#231 - y_0,1,5#381 <= 0
 R07_(j5b2o0l0i0)#246: x_5,2,4#212 - y_0,2,4#362 <= 0
 R07_(j5b2o1l0i0)#247: x_5,2,3#222 - y_0,2,3#372 <= 0
 R07_(j5b2o4l0i0)#248: x_5,2,5#232 - y_0,2,5#382 <= 0
 R07_(j5b3o0l0i0)#249: x_5,3,4#213 - y_0,3,4#363 <= 0
 R07_(j5b3o1l0i0)#250: x_5,3,3#223 - y_0,3,3#373 <= 0
 R07_(j5b3o4l0i0)#251: x_5,3,5#233 - y_0,3,5#383 <= 0
 R07_(j5b4o0l0i0)#252: x_5,4,4#214 - y_0,4,4#364 <= 0
 R07_(j5b4o1l0i0)#253: x_5,4,3#224 - y_0,4,3#374 <= 0
 R07_(j5b4o4l0i0)#254: x_5,4,5#234 - y_0,4,5#384 <= 0
 R07_(j5b5o0l0i0)#255: x_5,5,4#215 - y_0,5,4#365 <= 0
 R07_(j5b5o1l0i0)#256: x_5,5,3#225 - y_0,5,3#375 <= 0
 R07_(j5b5o4l0i0)#257: x_5,5,5#235 - y_0,5,5#385 <= 0
 R07_(j5b6o0l0i0)#258: x_5,6,4#216 - y_0,6,4#366 <= 0
 R07_(j5b6o1l0i0)#259: x_5,6,3#226 - y_0,6,3#376 <= 0
 R07_(j5b6o4l0i0)#260: x_5,6,5#236 - y_0,6,5#386 <= 0
 R07_(j5b7o0l0i0)#261: x_5,7,4#217 - y_0,7,4#367 <= 0
 R07_(j5b7o1l0i0)#262: x_5,7,3#227 - y_0,7,3#377 <= 0
 R07_(j5b7o4l0i0)#263: x_5,7,5#237 - y_0,7,5#387 <= 0
 R07_(j5b8o0l0i0)#264: x_5,8,4#218 - y_0,8,4#368 <= 0
 R07_(j5b8o1l0i0)#265: x_5,8,3#228 - y_0,8,3#378 <= 0
 R07_(j5b8o4l0i0)#266: x_5,8,5#238 - y_0,8,5#388 <= 0
 R07_(j5b9o0l0i0)#267: x_5,9,4#219 - y_0,9,4#369 <= 0
 R07_(j5b9o1l0i0)#268: x_5,9,3#229 - y_0,9,3#379 <= 0
 R07_(j5b9o4l0i0)#269: x_5,9,5#239 - y_0,9,5#389 <= 0
 R07_(j6b0o0l0i0)#270: x_6,0,4#240 - y_0,0,4#360 <= 0
 R07_(j6b0o1l0i0)#271: x_6,0,3#250 - y_0,0,3#370 <= 0
 R07_(j6b0o4l0i0)#272: x_6,0,5#260 - y_0,0,5#380 <= 0
 R07_(j6b1o0l0i0)#273: x_6,1,4#241 - y_0,1,4#361 <= 0
 R07_(j6b1o1l0i0)#274: x_6,1,3#251 - y_0,1,3#371 <= 0
 R07_(j6b1o4l0i0)#275: x_6,1,5#261 - y_0,1,5#381 <= 0
 R07_(j6b2o0l0i0)#276: x_6,2,4#242 - y_0,2,4#362 <= 0
 R07_(j6b2o1l0i0)#277: x_6,2,3#252 - y_0,2,3#372 <= 0
 R07_(j6b2o4l0i0)#278: x_6,2,5#262 - y_0,2,5#382 <= 0
 R07_(j6b3o0l0i0)#279: x_6,3,4#243 - y_0,3,4#363 <= 0
 R07_(j6b3o1l0i0)#280: x_6,3,3#253 - y_0,3,3#373 <= 0
 R07_(j6b3o4l0i0)#281: x_6,3,5#263 - y_0,3,5#383 <= 0
 R07_(j6b4o0l0i0)#282: x_6,4,4#244 - y_0,4,4#364 <= 0
 R07_(j6b4o1l0i0)#283: x_6,4,3#254 - y_0,4,3#374 <= 0
 R07_(j6b4o4l0i0)#284: x_6,4,5#264 - y_0,4,5#384 <= 0
 R07_(j6b5o0l0i0)#285: x_6,5,4#245 - y_0,5,4#365 <= 0
 R07_(j6b5o1l0i0)#286: x_6,5,3#255 - y_0,5,3#375 <= 0
 R07_(j6b5o4l0i0)#287: x_6,5,5#265 - y_0,5,5#385 <= 0
 R07_(j6b6o0l0i0)#288: x_6,6,4#246 - y_0,6,4#366 <= 0
 R07_(j6b6o1l0i0)#289: x_6,6,3#256 - y_0,6,3#376 <= 0
 R07_(j6b6o4l0i0)#290: x_6,6,5#266 - y_0,6,5#386 <= 0
 R07_(j6b7o0l0i0)#291: x_6,7,4#247 - y_0,7,4#367 <= 0
 R07_(j6b7o1l0i0)#292: x_6,7,3#257 - y_0,7,3#377 <= 0
 R07_(j6b7o4l0i0)#293: x_6,7,5#267 - y_0,7,5#387 <= 0
 R07_(j6b8o0l0i0)#294: x_6,8,4#248 - y_0,8,4#368 <= 0
 R07_(j6b8o1l0i0)#295: x_6,8,3#258 - y_0,8,3#378 <= 0
 R07_(j6b8o4l0i0)#296: x_6,8,5#268 - y_0,8,5#388 <= 0
 R07_(j6b9o0l0i0)#297: x_6,9,4#249 - y_0,9,4#369 <= 0
 R07_(j6b9o1l0i0)#298: x_6,9,3#259 - y_0,9,3#379 <= 0
 R07_(j6b9o4l0i0)#299: x_6,9,5#269 - y_0,9,5#389 <= 0
 R07_(j7b0o0l0i0)#300: x_7,0,4#270 - y_0,0,4#360 <= 0
 R07_(j7b0o1l0i0)#301: x_7,0,3#280 - y_0,0,3#370 <= 0
 R07_(j7b0o4l0i0)#302: x_7,0,5#290 - y_0,0,5#380 <= 0
 R07_(j7b1o0l0i0)#303: x_7,1,4#271 - y_0,1,4#361 <= 0
 R07_(j7b1o1l0i0)#304: x_7,1,3#281 - y_0,1,3#371 <= 0
 R07_(j7b1o4l0i0)#305: x_7,1,5#291 - y_0,1,5#381 <= 0
 R07_(j7b2o0l0i0)#306: x_7,2,4#272 - y_0,2,4#362 <= 0
 R07_(j7b2o1l0i0)#307: x_7,2,3#282 - y_0,2,3#372 <= 0
 R07_(j7b2o4l0i0)#308: x_7,2,5#292 - y_0,2,5#382 <= 0
 R07_(j7b3o0l0i0)#309: x_7,3,4#273 - y_0,3,4#363 <= 0
 R07_(j7b3o1l0i0)#310: x_7,3,3#283 - y_0,3,3#373 <= 0
 R07_(j7b3o4l0i0)#311: x_7,3,5#293 - y_0,3,5#383 <= 0
 R07_(j7b4o0l0i0)#312: x_7,4,4#274 - y_0,4,4#364 <= 0
 R07_(j7b4o1l0i0)#313: x_7,4,3#284 - y_0,4,3#374 <= 0
 R07_(j7b4o4l0i0)#314: x_7,4,5#294 - y_0,4,5#384 <= 0
 R07_(j7b5o0l0i0)#315: x_7,5,4#275 - y_0,5,4#365 <= 0
 R07_(j7b5o1l0i0)#316: x_7,5,3#285 - y_0,5,3#375 <= 0
 R07_(j7b5o4l0i0)#317: x_7,5,5#295 - y_0,5,5#385 <= 0
 R07_(j7b6o0l0i0)#318: x_7,6,4#276 - y_0,6,4#366 <= 0
 R07_(j7b6o1l0i0)#319: x_7,6,3#286 - y_0,6,3#376 <= 0
 R07_(j7b6o4l0i0)#320: x_7,6,5#296 - y_0,6,5#386 <= 0
 R07_(j7b7o0l0i0)#321: x_7,7,4#277 - y_0,7,4#367 <= 0
 R07_(j7b7o1l0i0)#322: x_7,7,3#287 - y_0,7,3#377 <= 0
 R07_(j7b7o4l0i0)#323: x_7,7,5#297 - y_0,7,5#387 <= 0
 R07_(j7b8o0l0i0)#324: x_7,8,4#278 - y_0,8,4#368 <= 0
 R07_(j7b8o1l0i0)#325: x_7,8,3#288 - y_0,8,3#378 <= 0
 R07_(j7b8o4l0i0)#326: x_7,8,5#298 - y_0,8,5#388 <= 0
 R07_(j7b9o0l0i0)#327: x_7,9,4#279 - y_0,9,4#369 <= 0
 R07_(j7b9o1l0i0)#328: x_7,9,3#289 - y_0,9,3#379 <= 0
 R07_(j7b9o4l0i0)#329: x_7,9,5#299 - y_0,9,5#389 <= 0
 R07_(j8b0o0l0i0)#330: x_8,0,4#300 - y_0,0,4#360 <= 0
 R07_(j8b0o1l0i0)#331: x_8,0,3#310 - y_0,0,3#370 <= 0
 R07_(j8b0o4l0i0)#332: x_8,0,5#320 - y_0,0,5#380 <= 0
 R07_(j8b1o0l0i0)#333: x_8,1,4#301 - y_0,1,4#361 <= 0
 R07_(j8b1o1l0i0)#334: x_8,1,3#311 - y_0,1,3#371 <= 0
 R07_(j8b1o4l0i0)#335: x_8,1,5#321 - y_0,1,5#381 <= 0
 R07_(j8b2o0l0i0)#336: x_8,2,4#302 - y_0,2,4#362 <= 0
 R07_(j8b2o1l0i0)#337: x_8,2,3#312 - y_0,2,3#372 <= 0
 R07_(j8b2o4l0i0)#338: x_8,2,5#322 - y_0,2,5#382 <= 0
 R07_(j8b3o0l0i0)#339: x_8,3,4#303 - y_0,3,4#363 <= 0
 R07_(j8b3o1l0i0)#340: x_8,3,3#313 - y_0,3,3#373 <= 0
 R07_(j8b3o4l0i0)#341: x_8,3,5#323 - y_0,3,5#383 <= 0
 R07_(j8b4o0l0i0)#342: x_8,4,4#304 - y_0,4,4#364 <= 0
 R07_(j8b4o1l0i0)#343: x_8,4,3#314 - y_0,4,3#374 <= 0
 R07_(j8b4o4l0i0)#344: x_8,4,5#324 - y_0,4,5#384 <= 0
 R07_(j8b5o0l0i0)#345: x_8,5,4#305 - y_0,5,4#365 <= 0
 R07_(j8b5o1l0i0)#346: x_8,5,3#315 - y_0,5,3#375 <= 0
 R07_(j8b5o4l0i0)#347: x_8,5,5#325 - y_0,5,5#385 <= 0
 R07_(j8b6o0l0i0)#348: x_8,6,4#306 - y_0,6,4#366 <= 0
 R07_(j8b6o1l0i0)#349: x_8,6,3#316 - y_0,6,3#376 <= 0
 R07_(j8b6o4l0i0)#350: x_8,6,5#326 - y_0,6,5#386 <= 0
 R07_(j8b7o0l0i0)#351: x_8,7,4#307 - y_0,7,4#367 <= 0
 R07_(j8b7o1l0i0)#352: x_8,7,3#317 - y_0,7,3#377 <= 0
 R07_(j8b7o4l0i0)#353: x_8,7,5#327 - y_0,7,5#387 <= 0
 R07_(j8b8o0l0i0)#354: x_8,8,4#308 - y_0,8,4#368 <= 0
 R07_(j8b8o1l0i0)#355: x_8,8,3#318 - y_0,8,3#378 <= 0
 R07_(j8b8o4l0i0)#356: x_8,8,5#328 - y_0,8,5#388 <= 0
 R07_(j8b9o0l0i0)#357: x_8,9,4#309 - y_0,9,4#369 <= 0
 R07_(j8b9o1l0i0)#358: x_8,9,3#319 - y_0,9,3#379 <= 0
 R07_(j8b9o4l0i0)#359: x_8,9,5#329 - y_0,9,5#389 <= 0
 R07_(j9b0o0l0i0)#360: x_9,0,4#330 - y_0,0,4#360 <= 0
 R07_(j9b0o1l0i0)#361: x_9,0,3#340 - y_0,0,3#370 <= 0
 R07_(j9b0o4l0i0)#362: x_9,0,5#350 - y_0,0,5#380 <= 0
 R07_(j9b1o0l0i0)#363: x_9,1,4#331 - y_0,1,4#361 <= 0
 R07_(j9b1o1l0i0)#364: x_9,1,3#341 - y_0,1,3#371 <= 0
 R07_(j9b1o4l0i0)#365: x_9,1,5#351 - y_0,1,5#381 <= 0
 R07_(j9b2o0l0i0)#366: x_9,2,4#332 - y_0,2,4#362 <= 0
 R07_(j9b2o1l0i0)#367: x_9,2,3#342 - y_0,2,3#372 <= 0
 R07_(j9b2o4l0i0)#368: x_9,2,5#352 - y_0,2,5#382 <= 0
 R07_(j9b3o0l0i0)#369: x_9,3,4#333 - y_0,3,4#363 <= 0
 R07_(j9b3o1l0i0)#370: x_9,3,3#343 - y_0,3,3#373 <= 0
 R07_(j9b3o4l0i0)#371: x_9,3,5#353 - y_0,3,5#383 <= 0
 R07_(j9b4o0l0i0)#372: x_9,4,4#334 - y_0,4,4#364 <= 0
 R07_(j9b4o1l0i0)#373: x_9,4,3#344 - y_0,4,3#374 <= 0
 R07_(j9b4o4l0i0)#374: x_9,4,5#354 - y_0,4,5#384 <= 0
 R07_(j9b5o0l0i0)#375: x_9,5,4#335 - y_0,5,4#365 <= 0
 R07_(j9b5o1l0i0)#376: x_9,5,3#345 - y_0,5,3#375 <= 0
 R07_(j9b5o4l0i0)#377: x_9,5,5#355 - y_0,5,5#385 <= 0
 R07_(j9b6o0l0i0)#378: x_9,6,4#336 - y_0,6,4#366 <= 0
 R07_(j9b6o1l0i0)#379: x_9,6,3#346 - y_0,6,3#376 <= 0
 R07_(j9b6o4l0i0)#380: x_9,6,5#356 - y_0,6,5#386 <= 0
 R07_(j9b7o0l0i0)#381: x_9,7,4#337 - y_0,7,4#367 <= 0
 R07_(j9b7o1l0i0)#382: x_9,7,3#347 - y_0,7,3#377 <= 0
 R07_(j9b7o4l0i0)#383: x_9,7,5#357 - y_0,7,5#387 <= 0
 R07_(j9b8o0l0i0)#384: x_9,8,4#338 - y_0,8,4#368 <= 0
 R07_(j9b8o1l0i0)#385: x_9,8,3#348 - y_0,8,3#378 <= 0
 R07_(j9b8o4l0i0)#386: x_9,8,5#358 - y_0,8,5#388 <= 0
 R07_(j9b9o0l0i0)#387: x_9,9,4#339 - y_0,9,4#369 <= 0
 R07_(j9b9o1l0i0)#388: x_9,9,3#349 - y_0,9,3#379 <= 0
 R07_(j9b9o4l0i0)#389: x_9,9,5#359 - y_0,9,5#389 <= 0
 R08_(j0o2)#390:       u_0,0#390 + u_0,2#391  = 1
 R08_(j0o3)#391:       u_0,6#392 + u_0,1#393  = 1
 R08_(j1o2)#392:       u_1,0#394 + u_1,2#395  = 1
 R08_(j1o3)#393:       u_1,6#396 + u_1,1#397  = 1
 R08_(j2o2)#394:       u_2,0#398 + u_2,2#399  = 1
 R08_(j2o3)#395:       u_2,6#400 + u_2,1#401  = 1
 R08_(j3o2)#396:       u_3,0#402 + u_3,2#403  = 1
 R08_(j3o3)#397:       u_3,6#404 + u_3,1#405  = 1
 R08_(j4o2)#398:       u_4,0#406 + u_4,2#407  = 1
 R08_(j4o3)#399:       u_4,6#408 + u_4,1#409  = 1
 R08_(j5o2)#400:       u_5,0#410 + u_5,2#411  = 1
 R08_(j5o3)#401:       u_5,6#412 + u_5,1#413  = 1
 R08_(j6o2)#402:       u_6,0#414 + u_6,2#415  = 1
 R08_(j6o3)#403:       u_6,6#416 + u_6,1#417  = 1
 R08_(j7o2)#404:       u_7,0#418 + u_7,2#419  = 1
 R08_(j7o3)#405:       u_7,6#420 + u_7,1#421  = 1
 R08_(j8o2)#406:       u_8,0#422 + u_8,2#423  = 1
 R08_(j8o3)#407:       u_8,6#424 + u_8,1#425  = 1
 R08_(j9o2)#408:       u_9,0#426 + u_9,2#427  = 1
 R08_(j9o3)#409:       u_9,6#428 + u_9,1#429  = 1
 R09_(j0)#410:         s_0,0#10 >= 135
 R09_(j1)#411:         s_1,0#15 >= 60
 R09_(j2)#412:         s_2,0#20 >= 172
 R09_(j3)#413:         s_3,0#25 >= 103
 R09_(j4)#414:         s_4,0#30 >= 167
 R09_(j5)#415:         s_5,0#35 >= 114
 R09_(j6)#416:         s_6,0#40 >= 158
 R09_(j7)#417:         s_7,0#45 >= 118
 R09_(j8)#418:         s_8,0#50 >= 133
 R09_(j9)#419:         s_9,0#55 >= 137
 R10_(j0o2l0)#420:     s_0,2#12 >= 0
 R10_(j0o2l1)#421:     s_0,2#12 >= 0
 R10_(j0o3l0)#422:     s_0,3#13 >= 0
 R10_(j0o3l1)#423:     s_0,3#13 >= 0
 R10_(j1o2l0)#424:     s_1,2#17 >= 0
 R10_(j1o2l1)#425:     s_1,2#17 >= 0
 R10_(j1o3l0)#426:     s_1,3#18 >= 0
 R10_(j1o3l1)#427:     s_1,3#18 >= 0
 R10_(j2o2l0)#428:     s_2,2#22 >= 0
 R10_(j2o2l1)#429:     s_2,2#22 >= 0
 R10_(j2o3l0)#430:     s_2,3#23 >= 0
 R10_(j2o3l1)#431:     s_2,3#23 >= 0
 R10_(j3o2l0)#432:     s_3,2#27 >= 0
 R10_(j3o2l1)#433:     s_3,2#27 >= 0
 R10_(j3o3l0)#434:     s_3,3#28 >= 0
 R10_(j3o3l1)#435:     s_3,3#28 >= 0
 R10_(j4o2l0)#436:     s_4,2#32 >= 0
 R10_(j4o2l1)#437:     s_4,2#32 >= 0
 R10_(j4o3l0)#438:     s_4,3#33 >= 0
 R10_(j4o3l1)#439:     s_4,3#33 >= 0
 R10_(j5o2l0)#440:     s_5,2#37 >= 0
 R10_(j5o2l1)#441:     s_5,2#37 >= 0
 R10_(j5o3l0)#442:     s_5,3#38 >= 0
 R10_(j5o3l1)#443:     s_5,3#38 >= 0
 R10_(j6o2l0)#444:     s_6,2#42 >= 0
 R10_(j6o2l1)#445:     s_6,2#42 >= 0
 R10_(j6o3l0)#446:     s_6,3#43 >= 0
 R10_(j6o3l1)#447:     s_6,3#43 >= 0
 R10_(j7o2l0)#448:     s_7,2#47 >= 0
 R10_(j7o2l1)#449:     s_7,2#47 >= 0
 R10_(j7o3l0)#450:     s_7,3#48 >= 0
 R10_(j7o3l1)#451:     s_7,3#48 >= 0
 R10_(j8o2l0)#452:     s_8,2#52 >= 0
 R10_(j8o2l1)#453:     s_8,2#52 >= 0
 R10_(j8o3l0)#454:     s_8,3#53 >= 0
 R10_(j8o3l1)#455:     s_8,3#53 >= 0
 R10_(j9o2l0)#456:     s_9,2#57 >= 0
 R10_(j9o2l1)#457:     s_9,2#57 >= 0
 R10_(j9o3l0)#458:     s_9,3#58 >= 0
 R10_(j9o3l1)#459:     s_9,3#58 >= 0
 R11_(j0o0b0l0)#460:   S_0,4#430 >= 0
 R11_(j0o0b1l0)#461:   S_1,4#431 >= 0
 R11_(j0o0b2l0)#462:   S_2,4#432 >= 0
 R11_(j0o0b3l0)#463:   S_3,4#433 >= 0
 R11_(j0o0b4l0)#464:   S_4,4#434 >= 0
 R11_(j0o0b5l0)#465:   S_5,4#435 >= 0
 R11_(j0o0b6l0)#466:   S_6,4#436 >= 0
 R11_(j0o0b7l0)#467:   S_7,4#437 >= 0
 R11_(j0o0b8l0)#468:   S_8,4#438 >= 0
 R11_(j0o0b9l0)#469:   S_9,4#439 >= 0
 R11_(j0o1b0l0)#470:   S_0,3#440 >= 0
 R11_(j0o1b1l0)#471:   S_1,3#441 >= 0
 R11_(j0o1b2l0)#472:   S_2,3#442 >= 0
 R11_(j0o1b3l0)#473:   S_3,3#443 >= 0
 R11_(j0o1b4l0)#474:   S_4,3#444 >= 0
 R11_(j0o1b5l0)#475:   S_5,3#445 >= 0
 R11_(j0o1b6l0)#476:   S_6,3#446 >= 0
 R11_(j0o1b7l0)#477:   S_7,3#447 >= 0
 R11_(j0o1b8l0)#478:   S_8,3#448 >= 0
 R11_(j0o1b9l0)#479:   S_9,3#449 >= 0
 R11_(j0o4b0l0)#480:   S_0,5#450 >= 0
 R11_(j0o4b1l0)#481:   S_1,5#451 >= 0
 R11_(j0o4b2l0)#482:   S_2,5#452 >= 0
 R11_(j0o4b3l0)#483:   S_3,5#453 >= 0
 R11_(j0o4b4l0)#484:   S_4,5#454 >= 0
 R11_(j0o4b5l0)#485:   S_5,5#455 >= 0
 R11_(j0o4b6l0)#486:   S_6,5#456 >= 0
 R11_(j0o4b7l0)#487:   S_7,5#457 >= 0
 R11_(j0o4b8l0)#488:   S_8,5#458 >= 0
 R11_(j0o4b9l0)#489:   S_9,5#459 >= 0
 R11_(j1o0b0l0)#490:   S_0,4#430 >= 0
 R11_(j1o0b1l0)#491:   S_1,4#431 >= 0
 R11_(j1o0b2l0)#492:   S_2,4#432 >= 0
 R11_(j1o0b3l0)#493:   S_3,4#433 >= 0
 R11_(j1o0b4l0)#494:   S_4,4#434 >= 0
 R11_(j1o0b5l0)#495:   S_5,4#435 >= 0
 R11_(j1o0b6l0)#496:   S_6,4#436 >= 0
 R11_(j1o0b7l0)#497:   S_7,4#437 >= 0
 R11_(j1o0b8l0)#498:   S_8,4#438 >= 0
 R11_(j1o0b9l0)#499:   S_9,4#439 >= 0
 R11_(j1o1b0l0)#500:   S_0,3#440 >= 0
 R11_(j1o1b1l0)#501:   S_1,3#441 >= 0
 R11_(j1o1b2l0)#502:   S_2,3#442 >= 0
 R11_(j1o1b3l0)#503:   S_3,3#443 >= 0
 R11_(j1o1b4l0)#504:   S_4,3#444 >= 0
 R11_(j1o1b5l0)#505:   S_5,3#445 >= 0
 R11_(j1o1b6l0)#506:   S_6,3#446 >= 0
 R11_(j1o1b7l0)#507:   S_7,3#447 >= 0
 R11_(j1o1b8l0)#508:   S_8,3#448 >= 0
 R11_(j1o1b9l0)#509:   S_9,3#449 >= 0
 R11_(j1o4b0l0)#510:   S_0,5#450 >= 0
 R11_(j1o4b1l0)#511:   S_1,5#451 >= 0
 R11_(j1o4b2l0)#512:   S_2,5#452 >= 0
 R11_(j1o4b3l0)#513:   S_3,5#453 >= 0
 R11_(j1o4b4l0)#514:   S_4,5#454 >= 0
 R11_(j1o4b5l0)#515:   S_5,5#455 >= 0
 R11_(j1o4b6l0)#516:   S_6,5#456 >= 0
 R11_(j1o4b7l0)#517:   S_7,5#457 >= 0
 R11_(j1o4b8l0)#518:   S_8,5#458 >= 0
 R11_(j1o4b9l0)#519:   S_9,5#459 >= 0
 R11_(j2o0b0l0)#520:   S_0,4#430 >= 0
 R11_(j2o0b1l0)#521:   S_1,4#431 >= 0
 R11_(j2o0b2l0)#522:   S_2,4#432 >= 0
 R11_(j2o0b3l0)#523:   S_3,4#433 >= 0
 R11_(j2o0b4l0)#524:   S_4,4#434 >= 0
 R11_(j2o0b5l0)#525:   S_5,4#435 >= 0
 R11_(j2o0b6l0)#526:   S_6,4#436 >= 0
 R11_(j2o0b7l0)#527:   S_7,4#437 >= 0
 R11_(j2o0b8l0)#528:   S_8,4#438 >= 0
 R11_(j2o0b9l0)#529:   S_9,4#439 >= 0
 R11_(j2o1b0l0)#530:   S_0,3#440 >= 0
 R11_(j2o1b1l0)#531:   S_1,3#441 >= 0
 R11_(j2o1b2l0)#532:   S_2,3#442 >= 0
 R11_(j2o1b3l0)#533:   S_3,3#443 >= 0
 R11_(j2o1b4l0)#534:   S_4,3#444 >= 0
 R11_(j2o1b5l0)#535:   S_5,3#445 >= 0
 R11_(j2o1b6l0)#536:   S_6,3#446 >= 0
 R11_(j2o1b7l0)#537:   S_7,3#447 >= 0
 R11_(j2o1b8l0)#538:   S_8,3#448 >= 0
 R11_(j2o1b9l0)#539:   S_9,3#449 >= 0
 R11_(j2o4b0l0)#540:   S_0,5#450 >= 0
 R11_(j2o4b1l0)#541:   S_1,5#451 >= 0
 R11_(j2o4b2l0)#542:   S_2,5#452 >= 0
 R11_(j2o4b3l0)#543:   S_3,5#453 >= 0
 R11_(j2o4b4l0)#544:   S_4,5#454 >= 0
 R11_(j2o4b5l0)#545:   S_5,5#455 >= 0
 R11_(j2o4b6l0)#546:   S_6,5#456 >= 0
 R11_(j2o4b7l0)#547:   S_7,5#457 >= 0
 R11_(j2o4b8l0)#548:   S_8,5#458 >= 0
 R11_(j2o4b9l0)#549:   S_9,5#459 >= 0
 R11_(j3o0b0l0)#550:   S_0,4#430 >= 0
 R11_(j3o0b1l0)#551:   S_1,4#431 >= 0
 R11_(j3o0b2l0)#552:   S_2,4#432 >= 0
 R11_(j3o0b3l0)#553:   S_3,4#433 >= 0
 R11_(j3o0b4l0)#554:   S_4,4#434 >= 0
 R11_(j3o0b5l0)#555:   S_5,4#435 >= 0
 R11_(j3o0b6l0)#556:   S_6,4#436 >= 0
 R11_(j3o0b7l0)#557:   S_7,4#437 >= 0
 R11_(j3o0b8l0)#558:   S_8,4#438 >= 0
 R11_(j3o0b9l0)#559:   S_9,4#439 >= 0
 R11_(j3o1b0l0)#560:   S_0,3#440 >= 0
 R11_(j3o1b1l0)#561:   S_1,3#441 >= 0
 R11_(j3o1b2l0)#562:   S_2,3#442 >= 0
 R11_(j3o1b3l0)#563:   S_3,3#443 >= 0
 R11_(j3o1b4l0)#564:   S_4,3#444 >= 0
 R11_(j3o1b5l0)#565:   S_5,3#445 >= 0
 R11_(j3o1b6l0)#566:   S_6,3#446 >= 0
 R11_(j3o1b7l0)#567:   S_7,3#447 >= 0
 R11_(j3o1b8l0)#568:   S_8,3#448 >= 0
 R11_(j3o1b9l0)#569:   S_9,3#449 >= 0
 R11_(j3o4b0l0)#570:   S_0,5#450 >= 0
 R11_(j3o4b1l0)#571:   S_1,5#451 >= 0
 R11_(j3o4b2l0)#572:   S_2,5#452 >= 0
 R11_(j3o4b3l0)#573:   S_3,5#453 >= 0
 R11_(j3o4b4l0)#574:   S_4,5#454 >= 0
 R11_(j3o4b5l0)#575:   S_5,5#455 >= 0
 R11_(j3o4b6l0)#576:   S_6,5#456 >= 0
 R11_(j3o4b7l0)#577:   S_7,5#457 >= 0
 R11_(j3o4b8l0)#578:   S_8,5#458 >= 0
 R11_(j3o4b9l0)#579:   S_9,5#459 >= 0
 R11_(j4o0b0l0)#580:   S_0,4#430 >= 0
 R11_(j4o0b1l0)#581:   S_1,4#431 >= 0
 R11_(j4o0b2l0)#582:   S_2,4#432 >= 0
 R11_(j4o0b3l0)#583:   S_3,4#433 >= 0
 R11_(j4o0b4l0)#584:   S_4,4#434 >= 0
 R11_(j4o0b5l0)#585:   S_5,4#435 >= 0
 R11_(j4o0b6l0)#586:   S_6,4#436 >= 0
 R11_(j4o0b7l0)#587:   S_7,4#437 >= 0
 R11_(j4o0b8l0)#588:   S_8,4#438 >= 0
 R11_(j4o0b9l0)#589:   S_9,4#439 >= 0
 R11_(j4o1b0l0)#590:   S_0,3#440 >= 0
 R11_(j4o1b1l0)#591:   S_1,3#441 >= 0
 R11_(j4o1b2l0)#592:   S_2,3#442 >= 0
 R11_(j4o1b3l0)#593:   S_3,3#443 >= 0
 R11_(j4o1b4l0)#594:   S_4,3#444 >= 0
 R11_(j4o1b5l0)#595:   S_5,3#445 >= 0
 R11_(j4o1b6l0)#596:   S_6,3#446 >= 0
 R11_(j4o1b7l0)#597:   S_7,3#447 >= 0
 R11_(j4o1b8l0)#598:   S_8,3#448 >= 0
 R11_(j4o1b9l0)#599:   S_9,3#449 >= 0
 R11_(j4o4b0l0)#600:   S_0,5#450 >= 0
 R11_(j4o4b1l0)#601:   S_1,5#451 >= 0
 R11_(j4o4b2l0)#602:   S_2,5#452 >= 0
 R11_(j4o4b3l0)#603:   S_3,5#453 >= 0
 R11_(j4o4b4l0)#604:   S_4,5#454 >= 0
 R11_(j4o4b5l0)#605:   S_5,5#455 >= 0
 R11_(j4o4b6l0)#606:   S_6,5#456 >= 0
 R11_(j4o4b7l0)#607:   S_7,5#457 >= 0
 R11_(j4o4b8l0)#608:   S_8,5#458 >= 0
 R11_(j4o4b9l0)#609:   S_9,5#459 >= 0
 R11_(j5o0b0l0)#610:   S_0,4#430 >= 0
 R11_(j5o0b1l0)#611:   S_1,4#431 >= 0
 R11_(j5o0b2l0)#612:   S_2,4#432 >= 0
 R11_(j5o0b3l0)#613:   S_3,4#433 >= 0
 R11_(j5o0b4l0)#614:   S_4,4#434 >= 0
 R11_(j5o0b5l0)#615:   S_5,4#435 >= 0
 R11_(j5o0b6l0)#616:   S_6,4#436 >= 0
 R11_(j5o0b7l0)#617:   S_7,4#437 >= 0
 R11_(j5o0b8l0)#618:   S_8,4#438 >= 0
 R11_(j5o0b9l0)#619:   S_9,4#439 >= 0
 R11_(j5o1b0l0)#620:   S_0,3#440 >= 0
 R11_(j5o1b1l0)#621:   S_1,3#441 >= 0
 R11_(j5o1b2l0)#622:   S_2,3#442 >= 0
 R11_(j5o1b3l0)#623:   S_3,3#443 >= 0
 R11_(j5o1b4l0)#624:   S_4,3#444 >= 0
 R11_(j5o1b5l0)#625:   S_5,3#445 >= 0
 R11_(j5o1b6l0)#626:   S_6,3#446 >= 0
 R11_(j5o1b7l0)#627:   S_7,3#447 >= 0
 R11_(j5o1b8l0)#628:   S_8,3#448 >= 0
 R11_(j5o1b9l0)#629:   S_9,3#449 >= 0
 R11_(j5o4b0l0)#630:   S_0,5#450 >= 0
 R11_(j5o4b1l0)#631:   S_1,5#451 >= 0
 R11_(j5o4b2l0)#632:   S_2,5#452 >= 0
 R11_(j5o4b3l0)#633:   S_3,5#453 >= 0
 R11_(j5o4b4l0)#634:   S_4,5#454 >= 0
 R11_(j5o4b5l0)#635:   S_5,5#455 >= 0
 R11_(j5o4b6l0)#636:   S_6,5#456 >= 0
 R11_(j5o4b7l0)#637:   S_7,5#457 >= 0
 R11_(j5o4b8l0)#638:   S_8,5#458 >= 0
 R11_(j5o4b9l0)#639:   S_9,5#459 >= 0
 R11_(j6o0b0l0)#640:   S_0,4#430 >= 0
 R11_(j6o0b1l0)#641:   S_1,4#431 >= 0
 R11_(j6o0b2l0)#642:   S_2,4#432 >= 0
 R11_(j6o0b3l0)#643:   S_3,4#433 >= 0
 R11_(j6o0b4l0)#644:   S_4,4#434 >= 0
 R11_(j6o0b5l0)#645:   S_5,4#435 >= 0
 R11_(j6o0b6l0)#646:   S_6,4#436 >= 0
 R11_(j6o0b7l0)#647:   S_7,4#437 >= 0
 R11_(j6o0b8l0)#648:   S_8,4#438 >= 0
 R11_(j6o0b9l0)#649:   S_9,4#439 >= 0
 R11_(j6o1b0l0)#650:   S_0,3#440 >= 0
 R11_(j6o1b1l0)#651:   S_1,3#441 >= 0
 R11_(j6o1b2l0)#652:   S_2,3#442 >= 0
 R11_(j6o1b3l0)#653:   S_3,3#443 >= 0
 R11_(j6o1b4l0)#654:   S_4,3#444 >= 0
 R11_(j6o1b5l0)#655:   S_5,3#445 >= 0
 R11_(j6o1b6l0)#656:   S_6,3#446 >= 0
 R11_(j6o1b7l0)#657:   S_7,3#447 >= 0
 R11_(j6o1b8l0)#658:   S_8,3#448 >= 0
 R11_(j6o1b9l0)#659:   S_9,3#449 >= 0
 R11_(j6o4b0l0)#660:   S_0,5#450 >= 0
 R11_(j6o4b1l0)#661:   S_1,5#451 >= 0
 R11_(j6o4b2l0)#662:   S_2,5#452 >= 0
 R11_(j6o4b3l0)#663:   S_3,5#453 >= 0
 R11_(j6o4b4l0)#664:   S_4,5#454 >= 0
 R11_(j6o4b5l0)#665:   S_5,5#455 >= 0
 R11_(j6o4b6l0)#666:   S_6,5#456 >= 0
 R11_(j6o4b7l0)#667:   S_7,5#457 >= 0
 R11_(j6o4b8l0)#668:   S_8,5#458 >= 0
 R11_(j6o4b9l0)#669:   S_9,5#459 >= 0
 R11_(j7o0b0l0)#670:   S_0,4#430 >= 0
 R11_(j7o0b1l0)#671:   S_1,4#431 >= 0
 R11_(j7o0b2l0)#672:   S_2,4#432 >= 0
 R11_(j7o0b3l0)#673:   S_3,4#433 >= 0
 R11_(j7o0b4l0)#674:   S_4,4#434 >= 0
 R11_(j7o0b5l0)#675:   S_5,4#435 >= 0
 R11_(j7o0b6l0)#676:   S_6,4#436 >= 0
 R11_(j7o0b7l0)#677:   S_7,4#437 >= 0
 R11_(j7o0b8l0)#678:   S_8,4#438 >= 0
 R11_(j7o0b9l0)#679:   S_9,4#439 >= 0
 R11_(j7o1b0l0)#680:   S_0,3#440 >= 0
 R11_(j7o1b1l0)#681:   S_1,3#441 >= 0
 R11_(j7o1b2l0)#682:   S_2,3#442 >= 0
 R11_(j7o1b3l0)#683:   S_3,3#443 >= 0
 R11_(j7o1b4l0)#684:   S_4,3#444 >= 0
 R11_(j7o1b5l0)#685:   S_5,3#445 >= 0
 R11_(j7o1b6l0)#686:   S_6,3#446 >= 0
 R11_(j7o1b7l0)#687:   S_7,3#447 >= 0
 R11_(j7o1b8l0)#688:   S_8,3#448 >= 0
 R11_(j7o1b9l0)#689:   S_9,3#449 >= 0
 R11_(j7o4b0l0)#690:   S_0,5#450 >= 0
 R11_(j7o4b1l0)#691:   S_1,5#451 >= 0
 R11_(j7o4b2l0)#692:   S_2,5#452 >= 0
 R11_(j7o4b3l0)#693:   S_3,5#453 >= 0
 R11_(j7o4b4l0)#694:   S_4,5#454 >= 0
 R11_(j7o4b5l0)#695:   S_5,5#455 >= 0
 R11_(j7o4b6l0)#696:   S_6,5#456 >= 0
 R11_(j7o4b7l0)#697:   S_7,5#457 >= 0
 R11_(j7o4b8l0)#698:   S_8,5#458 >= 0
 R11_(j7o4b9l0)#699:   S_9,5#459 >= 0
 R11_(j8o0b0l0)#700:   S_0,4#430 >= 0
 R11_(j8o0b1l0)#701:   S_1,4#431 >= 0
 R11_(j8o0b2l0)#702:   S_2,4#432 >= 0
 R11_(j8o0b3l0)#703:   S_3,4#433 >= 0
 R11_(j8o0b4l0)#704:   S_4,4#434 >= 0
 R11_(j8o0b5l0)#705:   S_5,4#435 >= 0
 R11_(j8o0b6l0)#706:   S_6,4#436 >= 0
 R11_(j8o0b7l0)#707:   S_7,4#437 >= 0
 R11_(j8o0b8l0)#708:   S_8,4#438 >= 0
 R11_(j8o0b9l0)#709:   S_9,4#439 >= 0
 R11_(j8o1b0l0)#710:   S_0,3#440 >= 0
 R11_(j8o1b1l0)#711:   S_1,3#441 >= 0
 R11_(j8o1b2l0)#712:   S_2,3#442 >= 0
 R11_(j8o1b3l0)#713:   S_3,3#443 >= 0
 R11_(j8o1b4l0)#714:   S_4,3#444 >= 0
 R11_(j8o1b5l0)#715:   S_5,3#445 >= 0
 R11_(j8o1b6l0)#716:   S_6,3#446 >= 0
 R11_(j8o1b7l0)#717:   S_7,3#447 >= 0
 R11_(j8o1b8l0)#718:   S_8,3#448 >= 0
 R11_(j8o1b9l0)#719:   S_9,3#449 >= 0
 R11_(j8o4b0l0)#720:   S_0,5#450 >= 0
 R11_(j8o4b1l0)#721:   S_1,5#451 >= 0
 R11_(j8o4b2l0)#722:   S_2,5#452 >= 0
 R11_(j8o4b3l0)#723:   S_3,5#453 >= 0
 R11_(j8o4b4l0)#724:   S_4,5#454 >= 0
 R11_(j8o4b5l0)#725:   S_5,5#455 >= 0
 R11_(j8o4b6l0)#726:   S_6,5#456 >= 0
 R11_(j8o4b7l0)#727:   S_7,5#457 >= 0
 R11_(j8o4b8l0)#728:   S_8,5#458 >= 0
 R11_(j8o4b9l0)#729:   S_9,5#459 >= 0
 R11_(j9o0b0l0)#730:   S_0,4#430 >= 0
 R11_(j9o0b1l0)#731:   S_1,4#431 >= 0
 R11_(j9o0b2l0)#732:   S_2,4#432 >= 0
 R11_(j9o0b3l0)#733:   S_3,4#433 >= 0
 R11_(j9o0b4l0)#734:   S_4,4#434 >= 0
 R11_(j9o0b5l0)#735:   S_5,4#435 >= 0
 R11_(j9o0b6l0)#736:   S_6,4#436 >= 0
 R11_(j9o0b7l0)#737:   S_7,4#437 >= 0
 R11_(j9o0b8l0)#738:   S_8,4#438 >= 0
 R11_(j9o0b9l0)#739:   S_9,4#439 >= 0
 R11_(j9o1b0l0)#740:   S_0,3#440 >= 0
 R11_(j9o1b1l0)#741:   S_1,3#441 >= 0
 R11_(j9o1b2l0)#742:   S_2,3#442 >= 0
 R11_(j9o1b3l0)#743:   S_3,3#443 >= 0
 R11_(j9o1b4l0)#744:   S_4,3#444 >= 0
 R11_(j9o1b5l0)#745:   S_5,3#445 >= 0
 R11_(j9o1b6l0)#746:   S_6,3#446 >= 0
 R11_(j9o1b7l0)#747:   S_7,3#447 >= 0
 R11_(j9o1b8l0)#748:   S_8,3#448 >= 0
 R11_(j9o1b9l0)#749:   S_9,3#449 >= 0
 R11_(j9o4b0l0)#750:   S_0,5#450 >= 0
 R11_(j9o4b1l0)#751:   S_1,5#451 >= 0
 R11_(j9o4b2l0)#752:   S_2,5#452 >= 0
 R11_(j9o4b3l0)#753:   S_3,5#453 >= 0
 R11_(j9o4b4l0)#754:   S_4,5#454 >= 0
 R11_(j9o4b5l0)#755:   S_5,5#455 >= 0
 R11_(j9o4b6l0)#756:   S_6,5#456 >= 0
 R11_(j9o4b7l0)#757:   S_7,5#457 >= 0
 R11_(j9o4b8l0)#758:   S_8,5#458 >= 0
 R11_(j9o4b9l0)#759:   S_9,5#459 >= 0
 R12_(o0b0l0)#760:     13 y_0,0,4#360 + S_0,4#430 - S_1,4#431 <= 0
 R12_(o0b1l0)#761:     13 y_0,1,4#361 + S_1,4#431 - S_2,4#432 <= 0
 R12_(o0b2l0)#762:     13 y_0,2,4#362 + S_2,4#432 - S_3,4#433 <= 0
 R12_(o0b3l0)#763:     13 y_0,3,4#363 + S_3,4#433 - S_4,4#434 <= 0
 R12_(o0b4l0)#764:     13 y_0,4,4#364 + S_4,4#434 - S_5,4#435 <= 0
 R12_(o0b5l0)#765:     13 y_0,5,4#365 + S_5,4#435 - S_6,4#436 <= 0
 R12_(o0b6l0)#766:     13 y_0,6,4#366 + S_6,4#436 - S_7,4#437 <= 0
 R12_(o0b7l0)#767:     13 y_0,7,4#367 + S_7,4#437 - S_8,4#438 <= 0
 R12_(o0b8l0)#768:     13 y_0,8,4#368 + S_8,4#438 - S_9,4#439 <= 0
 R12_(o1b0l0)#769:     22 y_0,0,3#370 + S_0,3#440 - S_1,3#441 <= 0
 R12_(o1b1l0)#770:     22 y_0,1,3#371 + S_1,3#441 - S_2,3#442 <= 0
 R12_(o1b2l0)#771:     22 y_0,2,3#372 + S_2,3#442 - S_3,3#443 <= 0
 R12_(o1b3l0)#772:     22 y_0,3,3#373 + S_3,3#443 - S_4,3#444 <= 0
 R12_(o1b4l0)#773:     22 y_0,4,3#374 + S_4,3#444 - S_5,3#445 <= 0
 R12_(o1b5l0)#774:     22 y_0,5,3#375 + S_5,3#445 - S_6,3#446 <= 0
 R12_(o1b6l0)#775:     22 y_0,6,3#376 + S_6,3#446 - S_7,3#447 <= 0
 R12_(o1b7l0)#776:     22 y_0,7,3#377 + S_7,3#447 - S_8,3#448 <= 0
 R12_(o1b8l0)#777:     22 y_0,8,3#378 + S_8,3#448 - S_9,3#449 <= 0
 R12_(o4b0l0)#778:     29 y_0,0,5#380 + S_0,5#450 - S_1,5#451 <= 0
 R12_(o4b1l0)#779:     29 y_0,1,5#381 + S_1,5#451 - S_2,5#452 <= 0
 R12_(o4b2l0)#780:     29 y_0,2,5#382 + S_2,5#452 - S_3,5#453 <= 0
 R12_(o4b3l0)#781:     29 y_0,3,5#383 + S_3,5#453 - S_4,5#454 <= 0
 R12_(o4b4l0)#782:     29 y_0,4,5#384 + S_4,5#454 - S_5,5#455 <= 0
 R12_(o4b5l0)#783:     29 y_0,5,5#385 + S_5,5#455 - S_6,5#456 <= 0
 R12_(o4b6l0)#784:     29 y_0,6,5#386 + S_6,5#456 - S_7,5#457 <= 0
 R12_(o4b7l0)#785:     29 y_0,7,5#387 + S_7,5#457 - S_8,5#458 <= 0
 R12_(o4b8l0)#786:     29 y_0,8,5#388 + S_8,5#458 - S_9,5#459 <= 0
 R13_(j0k1i0)#787:     s_0,2#12 - s_1,2#17 + 980 _e_0,1,2#460 <= 964
 R13_(j0k1i0)#788:     s_0,3#13 - s_1,3#18 + 980 _e_0,1,3#461 <= 962
 R13_(j0k2i0)#789:     s_0,2#12 - s_2,2#22 + 980 _e_0,2,2#462 <= 964
 R13_(j0k2i0)#790:     s_0,3#13 - s_2,3#23 + 980 _e_0,2,3#463 <= 962
 R13_(j0k3i0)#791:     s_0,2#12 - s_3,2#27 + 980 _e_0,3,2#464 <= 964
 R13_(j0k3i0)#792:     s_0,3#13 - s_3,3#28 + 980 _e_0,3,3#465 <= 962
 R13_(j0k4i0)#793:     s_0,2#12 - s_4,2#32 + 980 _e_0,4,2#466 <= 964
 R13_(j0k4i0)#794:     s_0,3#13 - s_4,3#33 + 980 _e_0,4,3#467 <= 962
 R13_(j0k5i0)#795:     s_0,2#12 - s_5,2#37 + 980 _e_0,5,2#468 <= 964
 R13_(j0k5i0)#796:     s_0,3#13 - s_5,3#38 + 980 _e_0,5,3#469 <= 962
 R13_(j0k6i0)#797:     s_0,2#12 - s_6,2#42 + 980 _e_0,6,2#470 <= 964
 R13_(j0k6i0)#798:     s_0,3#13 - s_6,3#43 + 980 _e_0,6,3#471 <= 962
 R13_(j0k7i0)#799:     s_0,2#12 - s_7,2#47 + 980 _e_0,7,2#472 <= 964
 R13_(j0k7i0)#800:     s_0,3#13 - s_7,3#48 + 980 _e_0,7,3#473 <= 962
 R13_(j0k8i0)#801:     s_0,2#12 - s_8,2#52 + 980 _e_0,8,2#474 <= 964
 R13_(j0k8i0)#802:     s_0,3#13 - s_8,3#53 + 980 _e_0,8,3#475 <= 962
 R13_(j0k9i0)#803:     s_0,2#12 - s_9,2#57 + 980 _e_0,9,2#476 <= 964
 R13_(j0k9i0)#804:     s_0,3#13 - s_9,3#58 + 980 _e_0,9,3#477 <= 962
 R13_(j1k0i0)#805:     - s_0,2#12 + s_1,2#17 + 980 _e_1,0,2#478 <= 964
 R13_(j1k0i0)#806:     - s_0,3#13 + s_1,3#18 + 980 _e_1,0,3#479 <= 962
 R13_(j1k2i0)#807:     s_1,2#17 - s_2,2#22 + 980 _e_1,2,2#480 <= 964
 R13_(j1k2i0)#808:     s_1,3#18 - s_2,3#23 + 980 _e_1,2,3#481 <= 962
 R13_(j1k3i0)#809:     s_1,2#17 - s_3,2#27 + 980 _e_1,3,2#482 <= 964
 R13_(j1k3i0)#810:     s_1,3#18 - s_3,3#28 + 980 _e_1,3,3#483 <= 962
 R13_(j1k4i0)#811:     s_1,2#17 - s_4,2#32 + 980 _e_1,4,2#484 <= 964
 R13_(j1k4i0)#812:     s_1,3#18 - s_4,3#33 + 980 _e_1,4,3#485 <= 962
 R13_(j1k5i0)#813:     s_1,2#17 - s_5,2#37 + 980 _e_1,5,2#486 <= 964
 R13_(j1k5i0)#814:     s_1,3#18 - s_5,3#38 + 980 _e_1,5,3#487 <= 962
 R13_(j1k6i0)#815:     s_1,2#17 - s_6,2#42 + 980 _e_1,6,2#488 <= 964
 R13_(j1k6i0)#816:     s_1,3#18 - s_6,3#43 + 980 _e_1,6,3#489 <= 962
 R13_(j1k7i0)#817:     s_1,2#17 - s_7,2#47 + 980 _e_1,7,2#490 <= 964
 R13_(j1k7i0)#818:     s_1,3#18 - s_7,3#48 + 980 _e_1,7,3#491 <= 962
 R13_(j1k8i0)#819:     s_1,2#17 - s_8,2#52 + 980 _e_1,8,2#492 <= 964
 R13_(j1k8i0)#820:     s_1,3#18 - s_8,3#53 + 980 _e_1,8,3#493 <= 962
 R13_(j1k9i0)#821:     s_1,2#17 - s_9,2#57 + 980 _e_1,9,2#494 <= 964
 R13_(j1k9i0)#822:     s_1,3#18 - s_9,3#58 + 980 _e_1,9,3#495 <= 962
 R13_(j2k0i0)#823:     - s_0,2#12 + s_2,2#22 + 980 _e_2,0,2#496 <= 964
 R13_(j2k0i0)#824:     - s_0,3#13 + s_2,3#23 + 980 _e_2,0,3#497 <= 962
 R13_(j2k1i0)#825:     - s_1,2#17 + s_2,2#22 + 980 _e_2,1,2#498 <= 964
 R13_(j2k1i0)#826:     - s_1,3#18 + s_2,3#23 + 980 _e_2,1,3#499 <= 962
 R13_(j2k3i0)#827:     s_2,2#22 - s_3,2#27 + 980 _e_2,3,2#500 <= 964
 R13_(j2k3i0)#828:     s_2,3#23 - s_3,3#28 + 980 _e_2,3,3#501 <= 962
 R13_(j2k4i0)#829:     s_2,2#22 - s_4,2#32 + 980 _e_2,4,2#502 <= 964
 R13_(j2k4i0)#830:     s_2,3#23 - s_4,3#33 + 980 _e_2,4,3#503 <= 962
 R13_(j2k5i0)#831:     s_2,2#22 - s_5,2#37 + 980 _e_2,5,2#504 <= 964
 R13_(j2k5i0)#832:     s_2,3#23 - s_5,3#38 + 980 _e_2,5,3#505 <= 962
 R13_(j2k6i0)#833:     s_2,2#22 - s_6,2#42 + 980 _e_2,6,2#506 <= 964
 R13_(j2k6i0)#834:     s_2,3#23 - s_6,3#43 + 980 _e_2,6,3#507 <= 962
 R13_(j2k7i0)#835:     s_2,2#22 - s_7,2#47 + 980 _e_2,7,2#508 <= 964
 R13_(j2k7i0)#836:     s_2,3#23 - s_7,3#48 + 980 _e_2,7,3#509 <= 962
 R13_(j2k8i0)#837:     s_2,2#22 - s_8,2#52 + 980 _e_2,8,2#510 <= 964
 R13_(j2k8i0)#838:     s_2,3#23 - s_8,3#53 + 980 _e_2,8,3#511 <= 962
 R13_(j2k9i0)#839:     s_2,2#22 - s_9,2#57 + 980 _e_2,9,2#512 <= 964
 R13_(j2k9i0)#840:     s_2,3#23 - s_9,3#58 + 980 _e_2,9,3#513 <= 962
 R13_(j3k0i0)#841:     - s_0,2#12 + s_3,2#27 + 980 _e_3,0,2#514 <= 964
 R13_(j3k0i0)#842:     - s_0,3#13 + s_3,3#28 + 980 _e_3,0,3#515 <= 962
 R13_(j3k1i0)#843:     - s_1,2#17 + s_3,2#27 + 980 _e_3,1,2#516 <= 964
 R13_(j3k1i0)#844:     - s_1,3#18 + s_3,3#28 + 980 _e_3,1,3#517 <= 962
 R13_(j3k2i0)#845:     - s_2,2#22 + s_3,2#27 + 980 _e_3,2,2#518 <= 964
 R13_(j3k2i0)#846:     - s_2,3#23 + s_3,3#28 + 980 _e_3,2,3#519 <= 962
 R13_(j3k4i0)#847:     s_3,2#27 - s_4,2#32 + 980 _e_3,4,2#520 <= 964
 R13_(j3k4i0)#848:     s_3,3#28 - s_4,3#33 + 980 _e_3,4,3#521 <= 962
 R13_(j3k5i0)#849:     s_3,2#27 - s_5,2#37 + 980 _e_3,5,2#522 <= 964
 R13_(j3k5i0)#850:     s_3,3#28 - s_5,3#38 + 980 _e_3,5,3#523 <= 962
 R13_(j3k6i0)#851:     s_3,2#27 - s_6,2#42 + 980 _e_3,6,2#524 <= 964
 R13_(j3k6i0)#852:     s_3,3#28 - s_6,3#43 + 980 _e_3,6,3#525 <= 962
 R13_(j3k7i0)#853:     s_3,2#27 - s_7,2#47 + 980 _e_3,7,2#526 <= 964
 R13_(j3k7i0)#854:     s_3,3#28 - s_7,3#48 + 980 _e_3,7,3#527 <= 962
 R13_(j3k8i0)#855:     s_3,2#27 - s_8,2#52 + 980 _e_3,8,2#528 <= 964
 R13_(j3k8i0)#856:     s_3,3#28 - s_8,3#53 + 980 _e_3,8,3#529 <= 962
 R13_(j3k9i0)#857:     s_3,2#27 - s_9,2#57 + 980 _e_3,9,2#530 <= 964
 R13_(j3k9i0)#858:     s_3,3#28 - s_9,3#58 + 980 _e_3,9,3#531 <= 962
 R13_(j4k0i0)#859:     - s_0,2#12 + s_4,2#32 + 980 _e_4,0,2#532 <= 964
 R13_(j4k0i0)#860:     - s_0,3#13 + s_4,3#33 + 980 _e_4,0,3#533 <= 962
 R13_(j4k1i0)#861:     - s_1,2#17 + s_4,2#32 + 980 _e_4,1,2#534 <= 964
 R13_(j4k1i0)#862:     - s_1,3#18 + s_4,3#33 + 980 _e_4,1,3#535 <= 962
 R13_(j4k2i0)#863:     - s_2,2#22 + s_4,2#32 + 980 _e_4,2,2#536 <= 964
 R13_(j4k2i0)#864:     - s_2,3#23 + s_4,3#33 + 980 _e_4,2,3#537 <= 962
 R13_(j4k3i0)#865:     - s_3,2#27 + s_4,2#32 + 980 _e_4,3,2#538 <= 964
 R13_(j4k3i0)#866:     - s_3,3#28 + s_4,3#33 + 980 _e_4,3,3#539 <= 962
 R13_(j4k5i0)#867:     s_4,2#32 - s_5,2#37 + 980 _e_4,5,2#540 <= 964
 R13_(j4k5i0)#868:     s_4,3#33 - s_5,3#38 + 980 _e_4,5,3#541 <= 962
 R13_(j4k6i0)#869:     s_4,2#32 - s_6,2#42 + 980 _e_4,6,2#542 <= 964
 R13_(j4k6i0)#870:     s_4,3#33 - s_6,3#43 + 980 _e_4,6,3#543 <= 962
 R13_(j4k7i0)#871:     s_4,2#32 - s_7,2#47 + 980 _e_4,7,2#544 <= 964
 R13_(j4k7i0)#872:     s_4,3#33 - s_7,3#48 + 980 _e_4,7,3#545 <= 962
 R13_(j4k8i0)#873:     s_4,2#32 - s_8,2#52 + 980 _e_4,8,2#546 <= 964
 R13_(j4k8i0)#874:     s_4,3#33 - s_8,3#53 + 980 _e_4,8,3#547 <= 962
 R13_(j4k9i0)#875:     s_4,2#32 - s_9,2#57 + 980 _e_4,9,2#548 <= 964
 R13_(j4k9i0)#876:     s_4,3#33 - s_9,3#58 + 980 _e_4,9,3#549 <= 962
 R13_(j5k0i0)#877:     - s_0,2#12 + s_5,2#37 + 980 _e_5,0,2#550 <= 964
 R13_(j5k0i0)#878:     - s_0,3#13 + s_5,3#38 + 980 _e_5,0,3#551 <= 962
 R13_(j5k1i0)#879:     - s_1,2#17 + s_5,2#37 + 980 _e_5,1,2#552 <= 964
 R13_(j5k1i0)#880:     - s_1,3#18 + s_5,3#38 + 980 _e_5,1,3#553 <= 962
 R13_(j5k2i0)#881:     - s_2,2#22 + s_5,2#37 + 980 _e_5,2,2#554 <= 964
 R13_(j5k2i0)#882:     - s_2,3#23 + s_5,3#38 + 980 _e_5,2,3#555 <= 962
 R13_(j5k3i0)#883:     - s_3,2#27 + s_5,2#37 + 980 _e_5,3,2#556 <= 964
 R13_(j5k3i0)#884:     - s_3,3#28 + s_5,3#38 + 980 _e_5,3,3#557 <= 962
 R13_(j5k4i0)#885:     - s_4,2#32 + s_5,2#37 + 980 _e_5,4,2#558 <= 964
 R13_(j5k4i0)#886:     - s_4,3#33 + s_5,3#38 + 980 _e_5,4,3#559 <= 962
 R13_(j5k6i0)#887:     s_5,2#37 - s_6,2#42 + 980 _e_5,6,2#560 <= 964
 R13_(j5k6i0)#888:     s_5,3#38 - s_6,3#43 + 980 _e_5,6,3#561 <= 962
 R13_(j5k7i0)#889:     s_5,2#37 - s_7,2#47 + 980 _e_5,7,2#562 <= 964
 R13_(j5k7i0)#890:     s_5,3#38 - s_7,3#48 + 980 _e_5,7,3#563 <= 962
 R13_(j5k8i0)#891:     s_5,2#37 - s_8,2#52 + 980 _e_5,8,2#564 <= 964
 R13_(j5k8i0)#892:     s_5,3#38 - s_8,3#53 + 980 _e_5,8,3#565 <= 962
 R13_(j5k9i0)#893:     s_5,2#37 - s_9,2#57 + 980 _e_5,9,2#566 <= 964
 R13_(j5k9i0)#894:     s_5,3#38 - s_9,3#58 + 980 _e_5,9,3#567 <= 962
 R13_(j6k0i0)#895:     - s_0,2#12 + s_6,2#42 + 980 _e_6,0,2#568 <= 964
 R13_(j6k0i0)#896:     - s_0,3#13 + s_6,3#43 + 980 _e_6,0,3#569 <= 962
 R13_(j6k1i0)#897:     - s_1,2#17 + s_6,2#42 + 980 _e_6,1,2#570 <= 964
 R13_(j6k1i0)#898:     - s_1,3#18 + s_6,3#43 + 980 _e_6,1,3#571 <= 962
 R13_(j6k2i0)#899:     - s_2,2#22 + s_6,2#42 + 980 _e_6,2,2#572 <= 964
 R13_(j6k2i0)#900:     - s_2,3#23 + s_6,3#43 + 980 _e_6,2,3#573 <= 962
 R13_(j6k3i0)#901:     - s_3,2#27 + s_6,2#42 + 980 _e_6,3,2#574 <= 964
 R13_(j6k3i0)#902:     - s_3,3#28 + s_6,3#43 + 980 _e_6,3,3#575 <= 962
 R13_(j6k4i0)#903:     - s_4,2#32 + s_6,2#42 + 980 _e_6,4,2#576 <= 964
 R13_(j6k4i0)#904:     - s_4,3#33 + s_6,3#43 + 980 _e_6,4,3#577 <= 962
 R13_(j6k5i0)#905:     - s_5,2#37 + s_6,2#42 + 980 _e_6,5,2#578 <= 964
 R13_(j6k5i0)#906:     - s_5,3#38 + s_6,3#43 + 980 _e_6,5,3#579 <= 962
 R13_(j6k7i0)#907:     s_6,2#42 - s_7,2#47 + 980 _e_6,7,2#580 <= 964
 R13_(j6k7i0)#908:     s_6,3#43 - s_7,3#48 + 980 _e_6,7,3#581 <= 962
 R13_(j6k8i0)#909:     s_6,2#42 - s_8,2#52 + 980 _e_6,8,2#582 <= 964
 R13_(j6k8i0)#910:     s_6,3#43 - s_8,3#53 + 980 _e_6,8,3#583 <= 962
 R13_(j6k9i0)#911:     s_6,2#42 - s_9,2#57 + 980 _e_6,9,2#584 <= 964
 R13_(j6k9i0)#912:     s_6,3#43 - s_9,3#58 + 980 _e_6,9,3#585 <= 962
 R13_(j7k0i0)#913:     - s_0,2#12 + s_7,2#47 + 980 _e_7,0,2#586 <= 964
 R13_(j7k0i0)#914:     - s_0,3#13 + s_7,3#48 + 980 _e_7,0,3#587 <= 962
 R13_(j7k1i0)#915:     - s_1,2#17 + s_7,2#47 + 980 _e_7,1,2#588 <= 964
 R13_(j7k1i0)#916:     - s_1,3#18 + s_7,3#48 + 980 _e_7,1,3#589 <= 962
 R13_(j7k2i0)#917:     - s_2,2#22 + s_7,2#47 + 980 _e_7,2,2#590 <= 964
 R13_(j7k2i0)#918:     - s_2,3#23 + s_7,3#48 + 980 _e_7,2,3#591 <= 962
 R13_(j7k3i0)#919:     - s_3,2#27 + s_7,2#47 + 980 _e_7,3,2#592 <= 964
 R13_(j7k3i0)#920:     - s_3,3#28 + s_7,3#48 + 980 _e_7,3,3#593 <= 962
 R13_(j7k4i0)#921:     - s_4,2#32 + s_7,2#47 + 980 _e_7,4,2#594 <= 964
 R13_(j7k4i0)#922:     - s_4,3#33 + s_7,3#48 + 980 _e_7,4,3#595 <= 962
 R13_(j7k5i0)#923:     - s_5,2#37 + s_7,2#47 + 980 _e_7,5,2#596 <= 964
 R13_(j7k5i0)#924:     - s_5,3#38 + s_7,3#48 + 980 _e_7,5,3#597 <= 962
 R13_(j7k6i0)#925:     - s_6,2#42 + s_7,2#47 + 980 _e_7,6,2#598 <= 964
 R13_(j7k6i0)#926:     - s_6,3#43 + s_7,3#48 + 980 _e_7,6,3#599 <= 962
 R13_(j7k8i0)#927:     s_7,2#47 - s_8,2#52 + 980 _e_7,8,2#600 <= 964
 R13_(j7k8i0)#928:     s_7,3#48 - s_8,3#53 + 980 _e_7,8,3#601 <= 962
 R13_(j7k9i0)#929:     s_7,2#47 - s_9,2#57 + 980 _e_7,9,2#602 <= 964
 R13_(j7k9i0)#930:     s_7,3#48 - s_9,3#58 + 980 _e_7,9,3#603 <= 962
 R13_(j8k0i0)#931:     - s_0,2#12 + s_8,2#52 + 980 _e_8,0,2#604 <= 964
 R13_(j8k0i0)#932:     - s_0,3#13 + s_8,3#53 + 980 _e_8,0,3#605 <= 962
 R13_(j8k1i0)#933:     - s_1,2#17 + s_8,2#52 + 980 _e_8,1,2#606 <= 964
 R13_(j8k1i0)#934:     - s_1,3#18 + s_8,3#53 + 980 _e_8,1,3#607 <= 962
 R13_(j8k2i0)#935:     - s_2,2#22 + s_8,2#52 + 980 _e_8,2,2#608 <= 964
 R13_(j8k2i0)#936:     - s_2,3#23 + s_8,3#53 + 980 _e_8,2,3#609 <= 962
 R13_(j8k3i0)#937:     - s_3,2#27 + s_8,2#52 + 980 _e_8,3,2#610 <= 964
 R13_(j8k3i0)#938:     - s_3,3#28 + s_8,3#53 + 980 _e_8,3,3#611 <= 962
 R13_(j8k4i0)#939:     - s_4,2#32 + s_8,2#52 + 980 _e_8,4,2#612 <= 964
 R13_(j8k4i0)#940:     - s_4,3#33 + s_8,3#53 + 980 _e_8,4,3#613 <= 962
 R13_(j8k5i0)#941:     - s_5,2#37 + s_8,2#52 + 980 _e_8,5,2#614 <= 964
 R13_(j8k5i0)#942:     - s_5,3#38 + s_8,3#53 + 980 _e_8,5,3#615 <= 962
 R13_(j8k6i0)#943:     - s_6,2#42 + s_8,2#52 + 980 _e_8,6,2#616 <= 964
 R13_(j8k6i0)#944:     - s_6,3#43 + s_8,3#53 + 980 _e_8,6,3#617 <= 962
 R13_(j8k7i0)#945:     - s_7,2#47 + s_8,2#52 + 980 _e_8,7,2#618 <= 964
 R13_(j8k7i0)#946:     - s_7,3#48 + s_8,3#53 + 980 _e_8,7,3#619 <= 962
 R13_(j8k9i0)#947:     s_8,2#52 - s_9,2#57 + 980 _e_8,9,2#620 <= 964
 R13_(j8k9i0)#948:     s_8,3#53 - s_9,3#58 + 980 _e_8,9,3#621 <= 962
 R13_(j9k0i0)#949:     - s_0,2#12 + s_9,2#57 + 980 _e_9,0,2#622 <= 964
 R13_(j9k0i0)#950:     - s_0,3#13 + s_9,3#58 + 980 _e_9,0,3#623 <= 962
 R13_(j9k1i0)#951:     - s_1,2#17 + s_9,2#57 + 980 _e_9,1,2#624 <= 964
 R13_(j9k1i0)#952:     - s_1,3#18 + s_9,3#58 + 980 _e_9,1,3#625 <= 962
 R13_(j9k2i0)#953:     - s_2,2#22 + s_9,2#57 + 980 _e_9,2,2#626 <= 964
 R13_(j9k2i0)#954:     - s_2,3#23 + s_9,3#58 + 980 _e_9,2,3#627 <= 962
 R13_(j9k3i0)#955:     - s_3,2#27 + s_9,2#57 + 980 _e_9,3,2#628 <= 964
 R13_(j9k3i0)#956:     - s_3,3#28 + s_9,3#58 + 980 _e_9,3,3#629 <= 962
 R13_(j9k4i0)#957:     - s_4,2#32 + s_9,2#57 + 980 _e_9,4,2#630 <= 964
 R13_(j9k4i0)#958:     - s_4,3#33 + s_9,3#58 + 980 _e_9,4,3#631 <= 962
 R13_(j9k5i0)#959:     - s_5,2#37 + s_9,2#57 + 980 _e_9,5,2#632 <= 964
 R13_(j9k5i0)#960:     - s_5,3#38 + s_9,3#58 + 980 _e_9,5,3#633 <= 962
 R13_(j9k6i0)#961:     - s_6,2#42 + s_9,2#57 + 980 _e_9,6,2#634 <= 964
 R13_(j9k6i0)#962:     - s_6,3#43 + s_9,3#58 + 980 _e_9,6,3#635 <= 962
 R13_(j9k7i0)#963:     - s_7,2#47 + s_9,2#57 + 980 _e_9,7,2#636 <= 964
 R13_(j9k7i0)#964:     - s_7,3#48 + s_9,3#58 + 980 _e_9,7,3#637 <= 962
 R13_(j9k8i0)#965:     - s_8,2#52 + s_9,2#57 + 980 _e_9,8,2#638 <= 964
 R13_(j9k8i0)#966:     - s_8,3#53 + s_9,3#58 + 980 _e_9,8,3#639 <= 962
 R14_(j0i0o0)#967:     s_0,0#10 - s_0,1#11 <= -13
 R14_(j0i0o1)#968:     s_0,1#11 - s_0,2#12 <= -22
 R14_(j0i0o2)#969:     s_0,2#12 - s_0,3#13 <= -16
 R14_(j0i0o3)#970:     s_0,3#13 - s_0,4#14 <= -18
 R14_(j1i0o0)#971:     s_1,0#15 - s_1,1#16 <= -13
 R14_(j1i0o1)#972:     s_1,1#16 - s_1,2#17 <= -22
 R14_(j1i0o2)#973:     s_1,2#17 - s_1,3#18 <= -16
 R14_(j1i0o3)#974:     s_1,3#18 - s_1,4#19 <= -18
 R14_(j2i0o0)#975:     s_2,0#20 - s_2,1#21 <= -13
 R14_(j2i0o1)#976:     s_2,1#21 - s_2,2#22 <= -22
 R14_(j2i0o2)#977:     s_2,2#22 - s_2,3#23 <= -16
 R14_(j2i0o3)#978:     s_2,3#23 - s_2,4#24 <= -18
 R14_(j3i0o0)#979:     s_3,0#25 - s_3,1#26 <= -13
 R14_(j3i0o1)#980:     s_3,1#26 - s_3,2#27 <= -22
 R14_(j3i0o2)#981:     s_3,2#27 - s_3,3#28 <= -16
 R14_(j3i0o3)#982:     s_3,3#28 - s_3,4#29 <= -18
 R14_(j4i0o0)#983:     s_4,0#30 - s_4,1#31 <= -13
 R14_(j4i0o1)#984:     s_4,1#31 - s_4,2#32 <= -22
 R14_(j4i0o2)#985:     s_4,2#32 - s_4,3#33 <= -16
 R14_(j4i0o3)#986:     s_4,3#33 - s_4,4#34 <= -18
 R14_(j5i0o0)#987:     s_5,0#35 - s_5,1#36 <= -13
 R14_(j5i0o1)#988:     s_5,1#36 - s_5,2#37 <= -22
 R14_(j5i0o2)#989:     s_5,2#37 - s_5,3#38 <= -16
 R14_(j5i0o3)#990:     s_5,3#38 - s_5,4#39 <= -18
 R14_(j6i0o0)#991:     s_6,0#40 - s_6,1#41 <= -13
 R14_(j6i0o1)#992:     s_6,1#41 - s_6,2#42 <= -22
 R14_(j6i0o2)#993:     s_6,2#42 - s_6,3#43 <= -16
 R14_(j6i0o3)#994:     s_6,3#43 - s_6,4#44 <= -18
 R14_(j7i0o0)#995:     s_7,0#45 - s_7,1#46 <= -13
 R14_(j7i0o1)#996:     s_7,1#46 - s_7,2#47 <= -22
 R14_(j7i0o2)#997:     s_7,2#47 - s_7,3#48 <= -16
 R14_(j7i0o3)#998:     s_7,3#48 - s_7,4#49 <= -18
 R14_(j8i0o0)#999:     s_8,0#50 - s_8,1#51 <= -13
 R14_(j8i0o1)#1000:    s_8,1#51 - s_8,2#52 <= -22
 R14_(j8i0o2)#1001:    s_8,2#52 - s_8,3#53 <= -16
 R14_(j8i0o3)#1002:    s_8,3#53 - s_8,4#54 <= -18
 R14_(j9i0o0)#1003:    s_9,0#55 - s_9,1#56 <= -13
 R14_(j9i0o1)#1004:    s_9,1#56 - s_9,2#57 <= -22
 R14_(j9i0o2)#1005:    s_9,2#57 - s_9,3#58 <= -16
 R14_(j9i0o3)#1006:    s_9,3#58 - s_9,4#59 <= -18
 R15_(j0k1o2l0)#1007:  u_0,0#390 + u_1,0#394 - _e_0,1,2#460 - _e_1,0,2#478 <= 1
 R15_(j0k1o2l1)#1008:  u_0,2#391 + u_1,2#395 - _e_0,1,2#460 - _e_1,0,2#478 <= 1
 R15_(j0k1o3l0)#1009:  u_0,6#392 + u_1,6#396 - _e_0,1,3#461 - _e_1,0,3#479 <= 1
 R15_(j0k1o3l1)#1010:  u_0,1#393 + u_1,1#397 - _e_0,1,3#461 - _e_1,0,3#479 <= 1
 R15_(j0k2o2l0)#1011:  u_0,0#390 + u_2,0#398 - _e_0,2,2#462 - _e_2,0,2#496 <= 1
 R15_(j0k2o2l1)#1012:  u_0,2#391 + u_2,2#399 - _e_0,2,2#462 - _e_2,0,2#496 <= 1
 R15_(j0k2o3l0)#1013:  u_0,6#392 + u_2,6#400 - _e_0,2,3#463 - _e_2,0,3#497 <= 1
 R15_(j0k2o3l1)#1014:  u_0,1#393 + u_2,1#401 - _e_0,2,3#463 - _e_2,0,3#497 <= 1
 R15_(j0k3o2l0)#1015:  u_0,0#390 + u_3,0#402 - _e_0,3,2#464 - _e_3,0,2#514 <= 1
 R15_(j0k3o2l1)#1016:  u_0,2#391 + u_3,2#403 - _e_0,3,2#464 - _e_3,0,2#514 <= 1
 R15_(j0k3o3l0)#1017:  u_0,6#392 + u_3,6#404 - _e_0,3,3#465 - _e_3,0,3#515 <= 1
 R15_(j0k3o3l1)#1018:  u_0,1#393 + u_3,1#405 - _e_0,3,3#465 - _e_3,0,3#515 <= 1
 R15_(j0k4o2l0)#1019:  u_0,0#390 + u_4,0#406 - _e_0,4,2#466 - _e_4,0,2#532 <= 1
 R15_(j0k4o2l1)#1020:  u_0,2#391 + u_4,2#407 - _e_0,4,2#466 - _e_4,0,2#532 <= 1
 R15_(j0k4o3l0)#1021:  u_0,6#392 + u_4,6#408 - _e_0,4,3#467 - _e_4,0,3#533 <= 1
 R15_(j0k4o3l1)#1022:  u_0,1#393 + u_4,1#409 - _e_0,4,3#467 - _e_4,0,3#533 <= 1
 R15_(j0k5o2l0)#1023:  u_0,0#390 + u_5,0#410 - _e_0,5,2#468 - _e_5,0,2#550 <= 1
 R15_(j0k5o2l1)#1024:  u_0,2#391 + u_5,2#411 - _e_0,5,2#468 - _e_5,0,2#550 <= 1
 R15_(j0k5o3l0)#1025:  u_0,6#392 + u_5,6#412 - _e_0,5,3#469 - _e_5,0,3#551 <= 1
 R15_(j0k5o3l1)#1026:  u_0,1#393 + u_5,1#413 - _e_0,5,3#469 - _e_5,0,3#551 <= 1
 R15_(j0k6o2l0)#1027:  u_0,0#390 + u_6,0#414 - _e_0,6,2#470 - _e_6,0,2#568 <= 1
 R15_(j0k6o2l1)#1028:  u_0,2#391 + u_6,2#415 - _e_0,6,2#470 - _e_6,0,2#568 <= 1
 R15_(j0k6o3l0)#1029:  u_0,6#392 + u_6,6#416 - _e_0,6,3#471 - _e_6,0,3#569 <= 1
 R15_(j0k6o3l1)#1030:  u_0,1#393 + u_6,1#417 - _e_0,6,3#471 - _e_6,0,3#569 <= 1
 R15_(j0k7o2l0)#1031:  u_0,0#390 + u_7,0#418 - _e_0,7,2#472 - _e_7,0,2#586 <= 1
 R15_(j0k7o2l1)#1032:  u_0,2#391 + u_7,2#419 - _e_0,7,2#472 - _e_7,0,2#586 <= 1
 R15_(j0k7o3l0)#1033:  u_0,6#392 + u_7,6#420 - _e_0,7,3#473 - _e_7,0,3#587 <= 1
 R15_(j0k7o3l1)#1034:  u_0,1#393 + u_7,1#421 - _e_0,7,3#473 - _e_7,0,3#587 <= 1
 R15_(j0k8o2l0)#1035:  u_0,0#390 + u_8,0#422 - _e_0,8,2#474 - _e_8,0,2#604 <= 1
 R15_(j0k8o2l1)#1036:  u_0,2#391 + u_8,2#423 - _e_0,8,2#474 - _e_8,0,2#604 <= 1
 R15_(j0k8o3l0)#1037:  u_0,6#392 + u_8,6#424 - _e_0,8,3#475 - _e_8,0,3#605 <= 1
 R15_(j0k8o3l1)#1038:  u_0,1#393 + u_8,1#425 - _e_0,8,3#475 - _e_8,0,3#605 <= 1
 R15_(j0k9o2l0)#1039:  u_0,0#390 + u_9,0#426 - _e_0,9,2#476 - _e_9,0,2#622 <= 1
 R15_(j0k9o2l1)#1040:  u_0,2#391 + u_9,2#427 - _e_0,9,2#476 - _e_9,0,2#622 <= 1
 R15_(j0k9o3l0)#1041:  u_0,6#392 + u_9,6#428 - _e_0,9,3#477 - _e_9,0,3#623 <= 1
 R15_(j0k9o3l1)#1042:  u_0,1#393 + u_9,1#429 - _e_0,9,3#477 - _e_9,0,3#623 <= 1
 R15_(j1k0o2l0)#1043:  u_0,0#390 + u_1,0#394 - _e_0,1,2#460 - _e_1,0,2#478 <= 1
 R15_(j1k0o2l1)#1044:  u_0,2#391 + u_1,2#395 - _e_0,1,2#460 - _e_1,0,2#478 <= 1
 R15_(j1k0o3l0)#1045:  u_0,6#392 + u_1,6#396 - _e_0,1,3#461 - _e_1,0,3#479 <= 1
 R15_(j1k0o3l1)#1046:  u_0,1#393 + u_1,1#397 - _e_0,1,3#461 - _e_1,0,3#479 <= 1
 R15_(j1k2o2l0)#1047:  u_1,0#394 + u_2,0#398 - _e_1,2,2#480 - _e_2,1,2#498 <= 1
 R15_(j1k2o2l1)#1048:  u_1,2#395 + u_2,2#399 - _e_1,2,2#480 - _e_2,1,2#498 <= 1
 R15_(j1k2o3l0)#1049:  u_1,6#396 + u_2,6#400 - _e_1,2,3#481 - _e_2,1,3#499 <= 1
 R15_(j1k2o3l1)#1050:  u_1,1#397 + u_2,1#401 - _e_1,2,3#481 - _e_2,1,3#499 <= 1
 R15_(j1k3o2l0)#1051:  u_1,0#394 + u_3,0#402 - _e_1,3,2#482 - _e_3,1,2#516 <= 1
 R15_(j1k3o2l1)#1052:  u_1,2#395 + u_3,2#403 - _e_1,3,2#482 - _e_3,1,2#516 <= 1
 R15_(j1k3o3l0)#1053:  u_1,6#396 + u_3,6#404 - _e_1,3,3#483 - _e_3,1,3#517 <= 1
 R15_(j1k3o3l1)#1054:  u_1,1#397 + u_3,1#405 - _e_1,3,3#483 - _e_3,1,3#517 <= 1
 R15_(j1k4o2l0)#1055:  u_1,0#394 + u_4,0#406 - _e_1,4,2#484 - _e_4,1,2#534 <= 1
 R15_(j1k4o2l1)#1056:  u_1,2#395 + u_4,2#407 - _e_1,4,2#484 - _e_4,1,2#534 <= 1
 R15_(j1k4o3l0)#1057:  u_1,6#396 + u_4,6#408 - _e_1,4,3#485 - _e_4,1,3#535 <= 1
 R15_(j1k4o3l1)#1058:  u_1,1#397 + u_4,1#409 - _e_1,4,3#485 - _e_4,1,3#535 <= 1
 R15_(j1k5o2l0)#1059:  u_1,0#394 + u_5,0#410 - _e_1,5,2#486 - _e_5,1,2#552 <= 1
 R15_(j1k5o2l1)#1060:  u_1,2#395 + u_5,2#411 - _e_1,5,2#486 - _e_5,1,2#552 <= 1
 R15_(j1k5o3l0)#1061:  u_1,6#396 + u_5,6#412 - _e_1,5,3#487 - _e_5,1,3#553 <= 1
 R15_(j1k5o3l1)#1062:  u_1,1#397 + u_5,1#413 - _e_1,5,3#487 - _e_5,1,3#553 <= 1
 R15_(j1k6o2l0)#1063:  u_1,0#394 + u_6,0#414 - _e_1,6,2#488 - _e_6,1,2#570 <= 1
 R15_(j1k6o2l1)#1064:  u_1,2#395 + u_6,2#415 - _e_1,6,2#488 - _e_6,1,2#570 <= 1
 R15_(j1k6o3l0)#1065:  u_1,6#396 + u_6,6#416 - _e_1,6,3#489 - _e_6,1,3#571 <= 1
 R15_(j1k6o3l1)#1066:  u_1,1#397 + u_6,1#417 - _e_1,6,3#489 - _e_6,1,3#571 <= 1
 R15_(j1k7o2l0)#1067:  u_1,0#394 + u_7,0#418 - _e_1,7,2#490 - _e_7,1,2#588 <= 1
 R15_(j1k7o2l1)#1068:  u_1,2#395 + u_7,2#419 - _e_1,7,2#490 - _e_7,1,2#588 <= 1
 R15_(j1k7o3l0)#1069:  u_1,6#396 + u_7,6#420 - _e_1,7,3#491 - _e_7,1,3#589 <= 1
 R15_(j1k7o3l1)#1070:  u_1,1#397 + u_7,1#421 - _e_1,7,3#491 - _e_7,1,3#589 <= 1
 R15_(j1k8o2l0)#1071:  u_1,0#394 + u_8,0#422 - _e_1,8,2#492 - _e_8,1,2#606 <= 1
 R15_(j1k8o2l1)#1072:  u_1,2#395 + u_8,2#423 - _e_1,8,2#492 - _e_8,1,2#606 <= 1
 R15_(j1k8o3l0)#1073:  u_1,6#396 + u_8,6#424 - _e_1,8,3#493 - _e_8,1,3#607 <= 1
 R15_(j1k8o3l1)#1074:  u_1,1#397 + u_8,1#425 - _e_1,8,3#493 - _e_8,1,3#607 <= 1
 R15_(j1k9o2l0)#1075:  u_1,0#394 + u_9,0#426 - _e_1,9,2#494 - _e_9,1,2#624 <= 1
 R15_(j1k9o2l1)#1076:  u_1,2#395 + u_9,2#427 - _e_1,9,2#494 - _e_9,1,2#624 <= 1
 R15_(j1k9o3l0)#1077:  u_1,6#396 + u_9,6#428 - _e_1,9,3#495 - _e_9,1,3#625 <= 1
 R15_(j1k9o3l1)#1078:  u_1,1#397 + u_9,1#429 - _e_1,9,3#495 - _e_9,1,3#625 <= 1
 R15_(j2k0o2l0)#1079:  u_0,0#390 + u_2,0#398 - _e_0,2,2#462 - _e_2,0,2#496 <= 1
 R15_(j2k0o2l1)#1080:  u_0,2#391 + u_2,2#399 - _e_0,2,2#462 - _e_2,0,2#496 <= 1
 R15_(j2k0o3l0)#1081:  u_0,6#392 + u_2,6#400 - _e_0,2,3#463 - _e_2,0,3#497 <= 1
 R15_(j2k0o3l1)#1082:  u_0,1#393 + u_2,1#401 - _e_0,2,3#463 - _e_2,0,3#497 <= 1
 R15_(j2k1o2l0)#1083:  u_1,0#394 + u_2,0#398 - _e_1,2,2#480 - _e_2,1,2#498 <= 1
 R15_(j2k1o2l1)#1084:  u_1,2#395 + u_2,2#399 - _e_1,2,2#480 - _e_2,1,2#498 <= 1
 R15_(j2k1o3l0)#1085:  u_1,6#396 + u_2,6#400 - _e_1,2,3#481 - _e_2,1,3#499 <= 1
 R15_(j2k1o3l1)#1086:  u_1,1#397 + u_2,1#401 - _e_1,2,3#481 - _e_2,1,3#499 <= 1
 R15_(j2k3o2l0)#1087:  u_2,0#398 + u_3,0#402 - _e_2,3,2#500 - _e_3,2,2#518 <= 1
 R15_(j2k3o2l1)#1088:  u_2,2#399 + u_3,2#403 - _e_2,3,2#500 - _e_3,2,2#518 <= 1
 R15_(j2k3o3l0)#1089:  u_2,6#400 + u_3,6#404 - _e_2,3,3#501 - _e_3,2,3#519 <= 1
 R15_(j2k3o3l1)#1090:  u_2,1#401 + u_3,1#405 - _e_2,3,3#501 - _e_3,2,3#519 <= 1
 R15_(j2k4o2l0)#1091:  u_2,0#398 + u_4,0#406 - _e_2,4,2#502 - _e_4,2,2#536 <= 1
 R15_(j2k4o2l1)#1092:  u_2,2#399 + u_4,2#407 - _e_2,4,2#502 - _e_4,2,2#536 <= 1
 R15_(j2k4o3l0)#1093:  u_2,6#400 + u_4,6#408 - _e_2,4,3#503 - _e_4,2,3#537 <= 1
 R15_(j2k4o3l1)#1094:  u_2,1#401 + u_4,1#409 - _e_2,4,3#503 - _e_4,2,3#537 <= 1
 R15_(j2k5o2l0)#1095:  u_2,0#398 + u_5,0#410 - _e_2,5,2#504 - _e_5,2,2#554 <= 1
 R15_(j2k5o2l1)#1096:  u_2,2#399 + u_5,2#411 - _e_2,5,2#504 - _e_5,2,2#554 <= 1
 R15_(j2k5o3l0)#1097:  u_2,6#400 + u_5,6#412 - _e_2,5,3#505 - _e_5,2,3#555 <= 1
 R15_(j2k5o3l1)#1098:  u_2,1#401 + u_5,1#413 - _e_2,5,3#505 - _e_5,2,3#555 <= 1
 R15_(j2k6o2l0)#1099:  u_2,0#398 + u_6,0#414 - _e_2,6,2#506 - _e_6,2,2#572 <= 1
 R15_(j2k6o2l1)#1100:  u_2,2#399 + u_6,2#415 - _e_2,6,2#506 - _e_6,2,2#572 <= 1
 R15_(j2k6o3l0)#1101:  u_2,6#400 + u_6,6#416 - _e_2,6,3#507 - _e_6,2,3#573 <= 1
 R15_(j2k6o3l1)#1102:  u_2,1#401 + u_6,1#417 - _e_2,6,3#507 - _e_6,2,3#573 <= 1
 R15_(j2k7o2l0)#1103:  u_2,0#398 + u_7,0#418 - _e_2,7,2#508 - _e_7,2,2#590 <= 1
 R15_(j2k7o2l1)#1104:  u_2,2#399 + u_7,2#419 - _e_2,7,2#508 - _e_7,2,2#590 <= 1
 R15_(j2k7o3l0)#1105:  u_2,6#400 + u_7,6#420 - _e_2,7,3#509 - _e_7,2,3#591 <= 1
 R15_(j2k7o3l1)#1106:  u_2,1#401 + u_7,1#421 - _e_2,7,3#509 - _e_7,2,3#591 <= 1
 R15_(j2k8o2l0)#1107:  u_2,0#398 + u_8,0#422 - _e_2,8,2#510 - _e_8,2,2#608 <= 1
 R15_(j2k8o2l1)#1108:  u_2,2#399 + u_8,2#423 - _e_2,8,2#510 - _e_8,2,2#608 <= 1
 R15_(j2k8o3l0)#1109:  u_2,6#400 + u_8,6#424 - _e_2,8,3#511 - _e_8,2,3#609 <= 1
 R15_(j2k8o3l1)#1110:  u_2,1#401 + u_8,1#425 - _e_2,8,3#511 - _e_8,2,3#609 <= 1
 R15_(j2k9o2l0)#1111:  u_2,0#398 + u_9,0#426 - _e_2,9,2#512 - _e_9,2,2#626 <= 1
 R15_(j2k9o2l1)#1112:  u_2,2#399 + u_9,2#427 - _e_2,9,2#512 - _e_9,2,2#626 <= 1
 R15_(j2k9o3l0)#1113:  u_2,6#400 + u_9,6#428 - _e_2,9,3#513 - _e_9,2,3#627 <= 1
 R15_(j2k9o3l1)#1114:  u_2,1#401 + u_9,1#429 - _e_2,9,3#513 - _e_9,2,3#627 <= 1
 R15_(j3k0o2l0)#1115:  u_0,0#390 + u_3,0#402 - _e_0,3,2#464 - _e_3,0,2#514 <= 1
 R15_(j3k0o2l1)#1116:  u_0,2#391 + u_3,2#403 - _e_0,3,2#464 - _e_3,0,2#514 <= 1
 R15_(j3k0o3l0)#1117:  u_0,6#392 + u_3,6#404 - _e_0,3,3#465 - _e_3,0,3#515 <= 1
 R15_(j3k0o3l1)#1118:  u_0,1#393 + u_3,1#405 - _e_0,3,3#465 - _e_3,0,3#515 <= 1
 R15_(j3k1o2l0)#1119:  u_1,0#394 + u_3,0#402 - _e_1,3,2#482 - _e_3,1,2#516 <= 1
 R15_(j3k1o2l1)#1120:  u_1,2#395 + u_3,2#403 - _e_1,3,2#482 - _e_3,1,2#516 <= 1
 R15_(j3k1o3l0)#1121:  u_1,6#396 + u_3,6#404 - _e_1,3,3#483 - _e_3,1,3#517 <= 1
 R15_(j3k1o3l1)#1122:  u_1,1#397 + u_3,1#405 - _e_1,3,3#483 - _e_3,1,3#517 <= 1
 R15_(j3k2o2l0)#1123:  u_2,0#398 + u_3,0#402 - _e_2,3,2#500 - _e_3,2,2#518 <= 1
 R15_(j3k2o2l1)#1124:  u_2,2#399 + u_3,2#403 - _e_2,3,2#500 - _e_3,2,2#518 <= 1
 R15_(j3k2o3l0)#1125:  u_2,6#400 + u_3,6#404 - _e_2,3,3#501 - _e_3,2,3#519 <= 1
 R15_(j3k2o3l1)#1126:  u_2,1#401 + u_3,1#405 - _e_2,3,3#501 - _e_3,2,3#519 <= 1
 R15_(j3k4o2l0)#1127:  u_3,0#402 + u_4,0#406 - _e_3,4,2#520 - _e_4,3,2#538 <= 1
 R15_(j3k4o2l1)#1128:  u_3,2#403 + u_4,2#407 - _e_3,4,2#520 - _e_4,3,2#538 <= 1
 R15_(j3k4o3l0)#1129:  u_3,6#404 + u_4,6#408 - _e_3,4,3#521 - _e_4,3,3#539 <= 1
 R15_(j3k4o3l1)#1130:  u_3,1#405 + u_4,1#409 - _e_3,4,3#521 - _e_4,3,3#539 <= 1
 R15_(j3k5o2l0)#1131:  u_3,0#402 + u_5,0#410 - _e_3,5,2#522 - _e_5,3,2#556 <= 1
 R15_(j3k5o2l1)#1132:  u_3,2#403 + u_5,2#411 - _e_3,5,2#522 - _e_5,3,2#556 <= 1
 R15_(j3k5o3l0)#1133:  u_3,6#404 + u_5,6#412 - _e_3,5,3#523 - _e_5,3,3#557 <= 1
 R15_(j3k5o3l1)#1134:  u_3,1#405 + u_5,1#413 - _e_3,5,3#523 - _e_5,3,3#557 <= 1
 R15_(j3k6o2l0)#1135:  u_3,0#402 + u_6,0#414 - _e_3,6,2#524 - _e_6,3,2#574 <= 1
 R15_(j3k6o2l1)#1136:  u_3,2#403 + u_6,2#415 - _e_3,6,2#524 - _e_6,3,2#574 <= 1
 R15_(j3k6o3l0)#1137:  u_3,6#404 + u_6,6#416 - _e_3,6,3#525 - _e_6,3,3#575 <= 1
 R15_(j3k6o3l1)#1138:  u_3,1#405 + u_6,1#417 - _e_3,6,3#525 - _e_6,3,3#575 <= 1
 R15_(j3k7o2l0)#1139:  u_3,0#402 + u_7,0#418 - _e_3,7,2#526 - _e_7,3,2#592 <= 1
 R15_(j3k7o2l1)#1140:  u_3,2#403 + u_7,2#419 - _e_3,7,2#526 - _e_7,3,2#592 <= 1
 R15_(j3k7o3l0)#1141:  u_3,6#404 + u_7,6#420 - _e_3,7,3#527 - _e_7,3,3#593 <= 1
 R15_(j3k7o3l1)#1142:  u_3,1#405 + u_7,1#421 - _e_3,7,3#527 - _e_7,3,3#593 <= 1
 R15_(j3k8o2l0)#1143:  u_3,0#402 + u_8,0#422 - _e_3,8,2#528 - _e_8,3,2#610 <= 1
 R15_(j3k8o2l1)#1144:  u_3,2#403 + u_8,2#423 - _e_3,8,2#528 - _e_8,3,2#610 <= 1
 R15_(j3k8o3l0)#1145:  u_3,6#404 + u_8,6#424 - _e_3,8,3#529 - _e_8,3,3#611 <= 1
 R15_(j3k8o3l1)#1146:  u_3,1#405 + u_8,1#425 - _e_3,8,3#529 - _e_8,3,3#611 <= 1
 R15_(j3k9o2l0)#1147:  u_3,0#402 + u_9,0#426 - _e_3,9,2#530 - _e_9,3,2#628 <= 1
 R15_(j3k9o2l1)#1148:  u_3,2#403 + u_9,2#427 - _e_3,9,2#530 - _e_9,3,2#628 <= 1
 R15_(j3k9o3l0)#1149:  u_3,6#404 + u_9,6#428 - _e_3,9,3#531 - _e_9,3,3#629 <= 1
 R15_(j3k9o3l1)#1150:  u_3,1#405 + u_9,1#429 - _e_3,9,3#531 - _e_9,3,3#629 <= 1
 R15_(j4k0o2l0)#1151:  u_0,0#390 + u_4,0#406 - _e_0,4,2#466 - _e_4,0,2#532 <= 1
 R15_(j4k0o2l1)#1152:  u_0,2#391 + u_4,2#407 - _e_0,4,2#466 - _e_4,0,2#532 <= 1
 R15_(j4k0o3l0)#1153:  u_0,6#392 + u_4,6#408 - _e_0,4,3#467 - _e_4,0,3#533 <= 1
 R15_(j4k0o3l1)#1154:  u_0,1#393 + u_4,1#409 - _e_0,4,3#467 - _e_4,0,3#533 <= 1
 R15_(j4k1o2l0)#1155:  u_1,0#394 + u_4,0#406 - _e_1,4,2#484 - _e_4,1,2#534 <= 1
 R15_(j4k1o2l1)#1156:  u_1,2#395 + u_4,2#407 - _e_1,4,2#484 - _e_4,1,2#534 <= 1
 R15_(j4k1o3l0)#1157:  u_1,6#396 + u_4,6#408 - _e_1,4,3#485 - _e_4,1,3#535 <= 1
 R15_(j4k1o3l1)#1158:  u_1,1#397 + u_4,1#409 - _e_1,4,3#485 - _e_4,1,3#535 <= 1
 R15_(j4k2o2l0)#1159:  u_2,0#398 + u_4,0#406 - _e_2,4,2#502 - _e_4,2,2#536 <= 1
 R15_(j4k2o2l1)#1160:  u_2,2#399 + u_4,2#407 - _e_2,4,2#502 - _e_4,2,2#536 <= 1
 R15_(j4k2o3l0)#1161:  u_2,6#400 + u_4,6#408 - _e_2,4,3#503 - _e_4,2,3#537 <= 1
 R15_(j4k2o3l1)#1162:  u_2,1#401 + u_4,1#409 - _e_2,4,3#503 - _e_4,2,3#537 <= 1
 R15_(j4k3o2l0)#1163:  u_3,0#402 + u_4,0#406 - _e_3,4,2#520 - _e_4,3,2#538 <= 1
 R15_(j4k3o2l1)#1164:  u_3,2#403 + u_4,2#407 - _e_3,4,2#520 - _e_4,3,2#538 <= 1
 R15_(j4k3o3l0)#1165:  u_3,6#404 + u_4,6#408 - _e_3,4,3#521 - _e_4,3,3#539 <= 1
 R15_(j4k3o3l1)#1166:  u_3,1#405 + u_4,1#409 - _e_3,4,3#521 - _e_4,3,3#539 <= 1
 R15_(j4k5o2l0)#1167:  u_4,0#406 + u_5,0#410 - _e_4,5,2#540 - _e_5,4,2#558 <= 1
 R15_(j4k5o2l1)#1168:  u_4,2#407 + u_5,2#411 - _e_4,5,2#540 - _e_5,4,2#558 <= 1
 R15_(j4k5o3l0)#1169:  u_4,6#408 + u_5,6#412 - _e_4,5,3#541 - _e_5,4,3#559 <= 1
 R15_(j4k5o3l1)#1170:  u_4,1#409 + u_5,1#413 - _e_4,5,3#541 - _e_5,4,3#559 <= 1
 R15_(j4k6o2l0)#1171:  u_4,0#406 + u_6,0#414 - _e_4,6,2#542 - _e_6,4,2#576 <= 1
 R15_(j4k6o2l1)#1172:  u_4,2#407 + u_6,2#415 - _e_4,6,2#542 - _e_6,4,2#576 <= 1
 R15_(j4k6o3l0)#1173:  u_4,6#408 + u_6,6#416 - _e_4,6,3#543 - _e_6,4,3#577 <= 1
 R15_(j4k6o3l1)#1174:  u_4,1#409 + u_6,1#417 - _e_4,6,3#543 - _e_6,4,3#577 <= 1
 R15_(j4k7o2l0)#1175:  u_4,0#406 + u_7,0#418 - _e_4,7,2#544 - _e_7,4,2#594 <= 1
 R15_(j4k7o2l1)#1176:  u_4,2#407 + u_7,2#419 - _e_4,7,2#544 - _e_7,4,2#594 <= 1
 R15_(j4k7o3l0)#1177:  u_4,6#408 + u_7,6#420 - _e_4,7,3#545 - _e_7,4,3#595 <= 1
 R15_(j4k7o3l1)#1178:  u_4,1#409 + u_7,1#421 - _e_4,7,3#545 - _e_7,4,3#595 <= 1
 R15_(j4k8o2l0)#1179:  u_4,0#406 + u_8,0#422 - _e_4,8,2#546 - _e_8,4,2#612 <= 1
 R15_(j4k8o2l1)#1180:  u_4,2#407 + u_8,2#423 - _e_4,8,2#546 - _e_8,4,2#612 <= 1
 R15_(j4k8o3l0)#1181:  u_4,6#408 + u_8,6#424 - _e_4,8,3#547 - _e_8,4,3#613 <= 1
 R15_(j4k8o3l1)#1182:  u_4,1#409 + u_8,1#425 - _e_4,8,3#547 - _e_8,4,3#613 <= 1
 R15_(j4k9o2l0)#1183:  u_4,0#406 + u_9,0#426 - _e_4,9,2#548 - _e_9,4,2#630 <= 1
 R15_(j4k9o2l1)#1184:  u_4,2#407 + u_9,2#427 - _e_4,9,2#548 - _e_9,4,2#630 <= 1
 R15_(j4k9o3l0)#1185:  u_4,6#408 + u_9,6#428 - _e_4,9,3#549 - _e_9,4,3#631 <= 1
 R15_(j4k9o3l1)#1186:  u_4,1#409 + u_9,1#429 - _e_4,9,3#549 - _e_9,4,3#631 <= 1
 R15_(j5k0o2l0)#1187:  u_0,0#390 + u_5,0#410 - _e_0,5,2#468 - _e_5,0,2#550 <= 1
 R15_(j5k0o2l1)#1188:  u_0,2#391 + u_5,2#411 - _e_0,5,2#468 - _e_5,0,2#550 <= 1
 R15_(j5k0o3l0)#1189:  u_0,6#392 + u_5,6#412 - _e_0,5,3#469 - _e_5,0,3#551 <= 1
 R15_(j5k0o3l1)#1190:  u_0,1#393 + u_5,1#413 - _e_0,5,3#469 - _e_5,0,3#551 <= 1
 R15_(j5k1o2l0)#1191:  u_1,0#394 + u_5,0#410 - _e_1,5,2#486 - _e_5,1,2#552 <= 1
 R15_(j5k1o2l1)#1192:  u_1,2#395 + u_5,2#411 - _e_1,5,2#486 - _e_5,1,2#552 <= 1
 R15_(j5k1o3l0)#1193:  u_1,6#396 + u_5,6#412 - _e_1,5,3#487 - _e_5,1,3#553 <= 1
 R15_(j5k1o3l1)#1194:  u_1,1#397 + u_5,1#413 - _e_1,5,3#487 - _e_5,1,3#553 <= 1
 R15_(j5k2o2l0)#1195:  u_2,0#398 + u_5,0#410 - _e_2,5,2#504 - _e_5,2,2#554 <= 1
 R15_(j5k2o2l1)#1196:  u_2,2#399 + u_5,2#411 - _e_2,5,2#504 - _e_5,2,2#554 <= 1
 R15_(j5k2o3l0)#1197:  u_2,6#400 + u_5,6#412 - _e_2,5,3#505 - _e_5,2,3#555 <= 1
 R15_(j5k2o3l1)#1198:  u_2,1#401 + u_5,1#413 - _e_2,5,3#505 - _e_5,2,3#555 <= 1
 R15_(j5k3o2l0)#1199:  u_3,0#402 + u_5,0#410 - _e_3,5,2#522 - _e_5,3,2#556 <= 1
 R15_(j5k3o2l1)#1200:  u_3,2#403 + u_5,2#411 - _e_3,5,2#522 - _e_5,3,2#556 <= 1
 R15_(j5k3o3l0)#1201:  u_3,6#404 + u_5,6#412 - _e_3,5,3#523 - _e_5,3,3#557 <= 1
 R15_(j5k3o3l1)#1202:  u_3,1#405 + u_5,1#413 - _e_3,5,3#523 - _e_5,3,3#557 <= 1
 R15_(j5k4o2l0)#1203:  u_4,0#406 + u_5,0#410 - _e_4,5,2#540 - _e_5,4,2#558 <= 1
 R15_(j5k4o2l1)#1204:  u_4,2#407 + u_5,2#411 - _e_4,5,2#540 - _e_5,4,2#558 <= 1
 R15_(j5k4o3l0)#1205:  u_4,6#408 + u_5,6#412 - _e_4,5,3#541 - _e_5,4,3#559 <= 1
 R15_(j5k4o3l1)#1206:  u_4,1#409 + u_5,1#413 - _e_4,5,3#541 - _e_5,4,3#559 <= 1
 R15_(j5k6o2l0)#1207:  u_5,0#410 + u_6,0#414 - _e_5,6,2#560 - _e_6,5,2#578 <= 1
 R15_(j5k6o2l1)#1208:  u_5,2#411 + u_6,2#415 - _e_5,6,2#560 - _e_6,5,2#578 <= 1
 R15_(j5k6o3l0)#1209:  u_5,6#412 + u_6,6#416 - _e_5,6,3#561 - _e_6,5,3#579 <= 1
 R15_(j5k6o3l1)#1210:  u_5,1#413 + u_6,1#417 - _e_5,6,3#561 - _e_6,5,3#579 <= 1
 R15_(j5k7o2l0)#1211:  u_5,0#410 + u_7,0#418 - _e_5,7,2#562 - _e_7,5,2#596 <= 1
 R15_(j5k7o2l1)#1212:  u_5,2#411 + u_7,2#419 - _e_5,7,2#562 - _e_7,5,2#596 <= 1
 R15_(j5k7o3l0)#1213:  u_5,6#412 + u_7,6#420 - _e_5,7,3#563 - _e_7,5,3#597 <= 1
 R15_(j5k7o3l1)#1214:  u_5,1#413 + u_7,1#421 - _e_5,7,3#563 - _e_7,5,3#597 <= 1
 R15_(j5k8o2l0)#1215:  u_5,0#410 + u_8,0#422 - _e_5,8,2#564 - _e_8,5,2#614 <= 1
 R15_(j5k8o2l1)#1216:  u_5,2#411 + u_8,2#423 - _e_5,8,2#564 - _e_8,5,2#614 <= 1
 R15_(j5k8o3l0)#1217:  u_5,6#412 + u_8,6#424 - _e_5,8,3#565 - _e_8,5,3#615 <= 1
 R15_(j5k8o3l1)#1218:  u_5,1#413 + u_8,1#425 - _e_5,8,3#565 - _e_8,5,3#615 <= 1
 R15_(j5k9o2l0)#1219:  u_5,0#410 + u_9,0#426 - _e_5,9,2#566 - _e_9,5,2#632 <= 1
 R15_(j5k9o2l1)#1220:  u_5,2#411 + u_9,2#427 - _e_5,9,2#566 - _e_9,5,2#632 <= 1
 R15_(j5k9o3l0)#1221:  u_5,6#412 + u_9,6#428 - _e_5,9,3#567 - _e_9,5,3#633 <= 1
 R15_(j5k9o3l1)#1222:  u_5,1#413 + u_9,1#429 - _e_5,9,3#567 - _e_9,5,3#633 <= 1
 R15_(j6k0o2l0)#1223:  u_0,0#390 + u_6,0#414 - _e_0,6,2#470 - _e_6,0,2#568 <= 1
 R15_(j6k0o2l1)#1224:  u_0,2#391 + u_6,2#415 - _e_0,6,2#470 - _e_6,0,2#568 <= 1
 R15_(j6k0o3l0)#1225:  u_0,6#392 + u_6,6#416 - _e_0,6,3#471 - _e_6,0,3#569 <= 1
 R15_(j6k0o3l1)#1226:  u_0,1#393 + u_6,1#417 - _e_0,6,3#471 - _e_6,0,3#569 <= 1
 R15_(j6k1o2l0)#1227:  u_1,0#394 + u_6,0#414 - _e_1,6,2#488 - _e_6,1,2#570 <= 1
 R15_(j6k1o2l1)#1228:  u_1,2#395 + u_6,2#415 - _e_1,6,2#488 - _e_6,1,2#570 <= 1
 R15_(j6k1o3l0)#1229:  u_1,6#396 + u_6,6#416 - _e_1,6,3#489 - _e_6,1,3#571 <= 1
 R15_(j6k1o3l1)#1230:  u_1,1#397 + u_6,1#417 - _e_1,6,3#489 - _e_6,1,3#571 <= 1
 R15_(j6k2o2l0)#1231:  u_2,0#398 + u_6,0#414 - _e_2,6,2#506 - _e_6,2,2#572 <= 1
 R15_(j6k2o2l1)#1232:  u_2,2#399 + u_6,2#415 - _e_2,6,2#506 - _e_6,2,2#572 <= 1
 R15_(j6k2o3l0)#1233:  u_2,6#400 + u_6,6#416 - _e_2,6,3#507 - _e_6,2,3#573 <= 1
 R15_(j6k2o3l1)#1234:  u_2,1#401 + u_6,1#417 - _e_2,6,3#507 - _e_6,2,3#573 <= 1
 R15_(j6k3o2l0)#1235:  u_3,0#402 + u_6,0#414 - _e_3,6,2#524 - _e_6,3,2#574 <= 1
 R15_(j6k3o2l1)#1236:  u_3,2#403 + u_6,2#415 - _e_3,6,2#524 - _e_6,3,2#574 <= 1
 R15_(j6k3o3l0)#1237:  u_3,6#404 + u_6,6#416 - _e_3,6,3#525 - _e_6,3,3#575 <= 1
 R15_(j6k3o3l1)#1238:  u_3,1#405 + u_6,1#417 - _e_3,6,3#525 - _e_6,3,3#575 <= 1
 R15_(j6k4o2l0)#1239:  u_4,0#406 + u_6,0#414 - _e_4,6,2#542 - _e_6,4,2#576 <= 1
 R15_(j6k4o2l1)#1240:  u_4,2#407 + u_6,2#415 - _e_4,6,2#542 - _e_6,4,2#576 <= 1
 R15_(j6k4o3l0)#1241:  u_4,6#408 + u_6,6#416 - _e_4,6,3#543 - _e_6,4,3#577 <= 1
 R15_(j6k4o3l1)#1242:  u_4,1#409 + u_6,1#417 - _e_4,6,3#543 - _e_6,4,3#577 <= 1
 R15_(j6k5o2l0)#1243:  u_5,0#410 + u_6,0#414 - _e_5,6,2#560 - _e_6,5,2#578 <= 1
 R15_(j6k5o2l1)#1244:  u_5,2#411 + u_6,2#415 - _e_5,6,2#560 - _e_6,5,2#578 <= 1
 R15_(j6k5o3l0)#1245:  u_5,6#412 + u_6,6#416 - _e_5,6,3#561 - _e_6,5,3#579 <= 1
 R15_(j6k5o3l1)#1246:  u_5,1#413 + u_6,1#417 - _e_5,6,3#561 - _e_6,5,3#579 <= 1
 R15_(j6k7o2l0)#1247:  u_6,0#414 + u_7,0#418 - _e_6,7,2#580 - _e_7,6,2#598 <= 1
 R15_(j6k7o2l1)#1248:  u_6,2#415 + u_7,2#419 - _e_6,7,2#580 - _e_7,6,2#598 <= 1
 R15_(j6k7o3l0)#1249:  u_6,6#416 + u_7,6#420 - _e_6,7,3#581 - _e_7,6,3#599 <= 1
 R15_(j6k7o3l1)#1250:  u_6,1#417 + u_7,1#421 - _e_6,7,3#581 - _e_7,6,3#599 <= 1
 R15_(j6k8o2l0)#1251:  u_6,0#414 + u_8,0#422 - _e_6,8,2#582 - _e_8,6,2#616 <= 1
 R15_(j6k8o2l1)#1252:  u_6,2#415 + u_8,2#423 - _e_6,8,2#582 - _e_8,6,2#616 <= 1
 R15_(j6k8o3l0)#1253:  u_6,6#416 + u_8,6#424 - _e_6,8,3#583 - _e_8,6,3#617 <= 1
 R15_(j6k8o3l1)#1254:  u_6,1#417 + u_8,1#425 - _e_6,8,3#583 - _e_8,6,3#617 <= 1
 R15_(j6k9o2l0)#1255:  u_6,0#414 + u_9,0#426 - _e_6,9,2#584 - _e_9,6,2#634 <= 1
 R15_(j6k9o2l1)#1256:  u_6,2#415 + u_9,2#427 - _e_6,9,2#584 - _e_9,6,2#634 <= 1
 R15_(j6k9o3l0)#1257:  u_6,6#416 + u_9,6#428 - _e_6,9,3#585 - _e_9,6,3#635 <= 1
 R15_(j6k9o3l1)#1258:  u_6,1#417 + u_9,1#429 - _e_6,9,3#585 - _e_9,6,3#635 <= 1
 R15_(j7k0o2l0)#1259:  u_0,0#390 + u_7,0#418 - _e_0,7,2#472 - _e_7,0,2#586 <= 1
 R15_(j7k0o2l1)#1260:  u_0,2#391 + u_7,2#419 - _e_0,7,2#472 - _e_7,0,2#586 <= 1
 R15_(j7k0o3l0)#1261:  u_0,6#392 + u_7,6#420 - _e_0,7,3#473 - _e_7,0,3#587 <= 1
 R15_(j7k0o3l1)#1262:  u_0,1#393 + u_7,1#421 - _e_0,7,3#473 - _e_7,0,3#587 <= 1
 R15_(j7k1o2l0)#1263:  u_1,0#394 + u_7,0#418 - _e_1,7,2#490 - _e_7,1,2#588 <= 1
 R15_(j7k1o2l1)#1264:  u_1,2#395 + u_7,2#419 - _e_1,7,2#490 - _e_7,1,2#588 <= 1
 R15_(j7k1o3l0)#1265:  u_1,6#396 + u_7,6#420 - _e_1,7,3#491 - _e_7,1,3#589 <= 1
 R15_(j7k1o3l1)#1266:  u_1,1#397 + u_7,1#421 - _e_1,7,3#491 - _e_7,1,3#589 <= 1
 R15_(j7k2o2l0)#1267:  u_2,0#398 + u_7,0#418 - _e_2,7,2#508 - _e_7,2,2#590 <= 1
 R15_(j7k2o2l1)#1268:  u_2,2#399 + u_7,2#419 - _e_2,7,2#508 - _e_7,2,2#590 <= 1
 R15_(j7k2o3l0)#1269:  u_2,6#400 + u_7,6#420 - _e_2,7,3#509 - _e_7,2,3#591 <= 1
 R15_(j7k2o3l1)#1270:  u_2,1#401 + u_7,1#421 - _e_2,7,3#509 - _e_7,2,3#591 <= 1
 R15_(j7k3o2l0)#1271:  u_3,0#402 + u_7,0#418 - _e_3,7,2#526 - _e_7,3,2#592 <= 1
 R15_(j7k3o2l1)#1272:  u_3,2#403 + u_7,2#419 - _e_3,7,2#526 - _e_7,3,2#592 <= 1
 R15_(j7k3o3l0)#1273:  u_3,6#404 + u_7,6#420 - _e_3,7,3#527 - _e_7,3,3#593 <= 1
 R15_(j7k3o3l1)#1274:  u_3,1#405 + u_7,1#421 - _e_3,7,3#527 - _e_7,3,3#593 <= 1
 R15_(j7k4o2l0)#1275:  u_4,0#406 + u_7,0#418 - _e_4,7,2#544 - _e_7,4,2#594 <= 1
 R15_(j7k4o2l1)#1276:  u_4,2#407 + u_7,2#419 - _e_4,7,2#544 - _e_7,4,2#594 <= 1
 R15_(j7k4o3l0)#1277:  u_4,6#408 + u_7,6#420 - _e_4,7,3#545 - _e_7,4,3#595 <= 1
 R15_(j7k4o3l1)#1278:  u_4,1#409 + u_7,1#421 - _e_4,7,3#545 - _e_7,4,3#595 <= 1
 R15_(j7k5o2l0)#1279:  u_5,0#410 + u_7,0#418 - _e_5,7,2#562 - _e_7,5,2#596 <= 1
 R15_(j7k5o2l1)#1280:  u_5,2#411 + u_7,2#419 - _e_5,7,2#562 - _e_7,5,2#596 <= 1
 R15_(j7k5o3l0)#1281:  u_5,6#412 + u_7,6#420 - _e_5,7,3#563 - _e_7,5,3#597 <= 1
 R15_(j7k5o3l1)#1282:  u_5,1#413 + u_7,1#421 - _e_5,7,3#563 - _e_7,5,3#597 <= 1
 R15_(j7k6o2l0)#1283:  u_6,0#414 + u_7,0#418 - _e_6,7,2#580 - _e_7,6,2#598 <= 1
 R15_(j7k6o2l1)#1284:  u_6,2#415 + u_7,2#419 - _e_6,7,2#580 - _e_7,6,2#598 <= 1
 R15_(j7k6o3l0)#1285:  u_6,6#416 + u_7,6#420 - _e_6,7,3#581 - _e_7,6,3#599 <= 1
 R15_(j7k6o3l1)#1286:  u_6,1#417 + u_7,1#421 - _e_6,7,3#581 - _e_7,6,3#599 <= 1
 R15_(j7k8o2l0)#1287:  u_7,0#418 + u_8,0#422 - _e_7,8,2#600 - _e_8,7,2#618 <= 1
 R15_(j7k8o2l1)#1288:  u_7,2#419 + u_8,2#423 - _e_7,8,2#600 - _e_8,7,2#618 <= 1
 R15_(j7k8o3l0)#1289:  u_7,6#420 + u_8,6#424 - _e_7,8,3#601 - _e_8,7,3#619 <= 1
 R15_(j7k8o3l1)#1290:  u_7,1#421 + u_8,1#425 - _e_7,8,3#601 - _e_8,7,3#619 <= 1
 R15_(j7k9o2l0)#1291:  u_7,0#418 + u_9,0#426 - _e_7,9,2#602 - _e_9,7,2#636 <= 1
 R15_(j7k9o2l1)#1292:  u_7,2#419 + u_9,2#427 - _e_7,9,2#602 - _e_9,7,2#636 <= 1
 R15_(j7k9o3l0)#1293:  u_7,6#420 + u_9,6#428 - _e_7,9,3#603 - _e_9,7,3#637 <= 1
 R15_(j7k9o3l1)#1294:  u_7,1#421 + u_9,1#429 - _e_7,9,3#603 - _e_9,7,3#637 <= 1
 R15_(j8k0o2l0)#1295:  u_0,0#390 + u_8,0#422 - _e_0,8,2#474 - _e_8,0,2#604 <= 1
 R15_(j8k0o2l1)#1296:  u_0,2#391 + u_8,2#423 - _e_0,8,2#474 - _e_8,0,2#604 <= 1
 R15_(j8k0o3l0)#1297:  u_0,6#392 + u_8,6#424 - _e_0,8,3#475 - _e_8,0,3#605 <= 1
 R15_(j8k0o3l1)#1298:  u_0,1#393 + u_8,1#425 - _e_0,8,3#475 - _e_8,0,3#605 <= 1
 R15_(j8k1o2l0)#1299:  u_1,0#394 + u_8,0#422 - _e_1,8,2#492 - _e_8,1,2#606 <= 1
 R15_(j8k1o2l1)#1300:  u_1,2#395 + u_8,2#423 - _e_1,8,2#492 - _e_8,1,2#606 <= 1
 R15_(j8k1o3l0)#1301:  u_1,6#396 + u_8,6#424 - _e_1,8,3#493 - _e_8,1,3#607 <= 1
 R15_(j8k1o3l1)#1302:  u_1,1#397 + u_8,1#425 - _e_1,8,3#493 - _e_8,1,3#607 <= 1
 R15_(j8k2o2l0)#1303:  u_2,0#398 + u_8,0#422 - _e_2,8,2#510 - _e_8,2,2#608 <= 1
 R15_(j8k2o2l1)#1304:  u_2,2#399 + u_8,2#423 - _e_2,8,2#510 - _e_8,2,2#608 <= 1
 R15_(j8k2o3l0)#1305:  u_2,6#400 + u_8,6#424 - _e_2,8,3#511 - _e_8,2,3#609 <= 1
 R15_(j8k2o3l1)#1306:  u_2,1#401 + u_8,1#425 - _e_2,8,3#511 - _e_8,2,3#609 <= 1
 R15_(j8k3o2l0)#1307:  u_3,0#402 + u_8,0#422 - _e_3,8,2#528 - _e_8,3,2#610 <= 1
 R15_(j8k3o2l1)#1308:  u_3,2#403 + u_8,2#423 - _e_3,8,2#528 - _e_8,3,2#610 <= 1
 R15_(j8k3o3l0)#1309:  u_3,6#404 + u_8,6#424 - _e_3,8,3#529 - _e_8,3,3#611 <= 1
 R15_(j8k3o3l1)#1310:  u_3,1#405 + u_8,1#425 - _e_3,8,3#529 - _e_8,3,3#611 <= 1
 R15_(j8k4o2l0)#1311:  u_4,0#406 + u_8,0#422 - _e_4,8,2#546 - _e_8,4,2#612 <= 1
 R15_(j8k4o2l1)#1312:  u_4,2#407 + u_8,2#423 - _e_4,8,2#546 - _e_8,4,2#612 <= 1
 R15_(j8k4o3l0)#1313:  u_4,6#408 + u_8,6#424 - _e_4,8,3#547 - _e_8,4,3#613 <= 1
 R15_(j8k4o3l1)#1314:  u_4,1#409 + u_8,1#425 - _e_4,8,3#547 - _e_8,4,3#613 <= 1
 R15_(j8k5o2l0)#1315:  u_5,0#410 + u_8,0#422 - _e_5,8,2#564 - _e_8,5,2#614 <= 1
 R15_(j8k5o2l1)#1316:  u_5,2#411 + u_8,2#423 - _e_5,8,2#564 - _e_8,5,2#614 <= 1
 R15_(j8k5o3l0)#1317:  u_5,6#412 + u_8,6#424 - _e_5,8,3#565 - _e_8,5,3#615 <= 1
 R15_(j8k5o3l1)#1318:  u_5,1#413 + u_8,1#425 - _e_5,8,3#565 - _e_8,5,3#615 <= 1
 R15_(j8k6o2l0)#1319:  u_6,0#414 + u_8,0#422 - _e_6,8,2#582 - _e_8,6,2#616 <= 1
 R15_(j8k6o2l1)#1320:  u_6,2#415 + u_8,2#423 - _e_6,8,2#582 - _e_8,6,2#616 <= 1
 R15_(j8k6o3l0)#1321:  u_6,6#416 + u_8,6#424 - _e_6,8,3#583 - _e_8,6,3#617 <= 1
 R15_(j8k6o3l1)#1322:  u_6,1#417 + u_8,1#425 - _e_6,8,3#583 - _e_8,6,3#617 <= 1
 R15_(j8k7o2l0)#1323:  u_7,0#418 + u_8,0#422 - _e_7,8,2#600 - _e_8,7,2#618 <= 1
 R15_(j8k7o2l1)#1324:  u_7,2#419 + u_8,2#423 - _e_7,8,2#600 - _e_8,7,2#618 <= 1
 R15_(j8k7o3l0)#1325:  u_7,6#420 + u_8,6#424 - _e_7,8,3#601 - _e_8,7,3#619 <= 1
 R15_(j8k7o3l1)#1326:  u_7,1#421 + u_8,1#425 - _e_7,8,3#601 - _e_8,7,3#619 <= 1
 R15_(j8k9o2l0)#1327:  u_8,0#422 + u_9,0#426 - _e_8,9,2#620 - _e_9,8,2#638 <= 1
 R15_(j8k9o2l1)#1328:  u_8,2#423 + u_9,2#427 - _e_8,9,2#620 - _e_9,8,2#638 <= 1
 R15_(j8k9o3l0)#1329:  u_8,6#424 + u_9,6#428 - _e_8,9,3#621 - _e_9,8,3#639 <= 1
 R15_(j8k9o3l1)#1330:  u_8,1#425 + u_9,1#429 - _e_8,9,3#621 - _e_9,8,3#639 <= 1
 R15_(j9k0o2l0)#1331:  u_0,0#390 + u_9,0#426 - _e_0,9,2#476 - _e_9,0,2#622 <= 1
 R15_(j9k0o2l1)#1332:  u_0,2#391 + u_9,2#427 - _e_0,9,2#476 - _e_9,0,2#622 <= 1
 R15_(j9k0o3l0)#1333:  u_0,6#392 + u_9,6#428 - _e_0,9,3#477 - _e_9,0,3#623 <= 1
 R15_(j9k0o3l1)#1334:  u_0,1#393 + u_9,1#429 - _e_0,9,3#477 - _e_9,0,3#623 <= 1
 R15_(j9k1o2l0)#1335:  u_1,0#394 + u_9,0#426 - _e_1,9,2#494 - _e_9,1,2#624 <= 1
 R15_(j9k1o2l1)#1336:  u_1,2#395 + u_9,2#427 - _e_1,9,2#494 - _e_9,1,2#624 <= 1
 R15_(j9k1o3l0)#1337:  u_1,6#396 + u_9,6#428 - _e_1,9,3#495 - _e_9,1,3#625 <= 1
 R15_(j9k1o3l1)#1338:  u_1,1#397 + u_9,1#429 - _e_1,9,3#495 - _e_9,1,3#625 <= 1
 R15_(j9k2o2l0)#1339:  u_2,0#398 + u_9,0#426 - _e_2,9,2#512 - _e_9,2,2#626 <= 1
 R15_(j9k2o2l1)#1340:  u_2,2#399 + u_9,2#427 - _e_2,9,2#512 - _e_9,2,2#626 <= 1
 R15_(j9k2o3l0)#1341:  u_2,6#400 + u_9,6#428 - _e_2,9,3#513 - _e_9,2,3#627 <= 1
 R15_(j9k2o3l1)#1342:  u_2,1#401 + u_9,1#429 - _e_2,9,3#513 - _e_9,2,3#627 <= 1
 R15_(j9k3o2l0)#1343:  u_3,0#402 + u_9,0#426 - _e_3,9,2#530 - _e_9,3,2#628 <= 1
 R15_(j9k3o2l1)#1344:  u_3,2#403 + u_9,2#427 - _e_3,9,2#530 - _e_9,3,2#628 <= 1
 R15_(j9k3o3l0)#1345:  u_3,6#404 + u_9,6#428 - _e_3,9,3#531 - _e_9,3,3#629 <= 1
 R15_(j9k3o3l1)#1346:  u_3,1#405 + u_9,1#429 - _e_3,9,3#531 - _e_9,3,3#629 <= 1
 R15_(j9k4o2l0)#1347:  u_4,0#406 + u_9,0#426 - _e_4,9,2#548 - _e_9,4,2#630 <= 1
 R15_(j9k4o2l1)#1348:  u_4,2#407 + u_9,2#427 - _e_4,9,2#548 - _e_9,4,2#630 <= 1
 R15_(j9k4o3l0)#1349:  u_4,6#408 + u_9,6#428 - _e_4,9,3#549 - _e_9,4,3#631 <= 1
 R15_(j9k4o3l1)#1350:  u_4,1#409 + u_9,1#429 - _e_4,9,3#549 - _e_9,4,3#631 <= 1
 R15_(j9k5o2l0)#1351:  u_5,0#410 + u_9,0#426 - _e_5,9,2#566 - _e_9,5,2#632 <= 1
 R15_(j9k5o2l1)#1352:  u_5,2#411 + u_9,2#427 - _e_5,9,2#566 - _e_9,5,2#632 <= 1
 R15_(j9k5o3l0)#1353:  u_5,6#412 + u_9,6#428 - _e_5,9,3#567 - _e_9,5,3#633 <= 1
 R15_(j9k5o3l1)#1354:  u_5,1#413 + u_9,1#429 - _e_5,9,3#567 - _e_9,5,3#633 <= 1
 R15_(j9k6o2l0)#1355:  u_6,0#414 + u_9,0#426 - _e_6,9,2#584 - _e_9,6,2#634 <= 1
 R15_(j9k6o2l1)#1356:  u_6,2#415 + u_9,2#427 - _e_6,9,2#584 - _e_9,6,2#634 <= 1
 R15_(j9k6o3l0)#1357:  u_6,6#416 + u_9,6#428 - _e_6,9,3#585 - _e_9,6,3#635 <= 1
 R15_(j9k6o3l1)#1358:  u_6,1#417 + u_9,1#429 - _e_6,9,3#585 - _e_9,6,3#635 <= 1
 R15_(j9k7o2l0)#1359:  u_7,0#418 + u_9,0#426 - _e_7,9,2#602 - _e_9,7,2#636 <= 1
 R15_(j9k7o2l1)#1360:  u_7,2#419 + u_9,2#427 - _e_7,9,2#602 - _e_9,7,2#636 <= 1
 R15_(j9k7o3l0)#1361:  u_7,6#420 + u_9,6#428 - _e_7,9,3#603 - _e_9,7,3#637 <= 1
 R15_(j9k7o3l1)#1362:  u_7,1#421 + u_9,1#429 - _e_7,9,3#603 - _e_9,7,3#637 <= 1
 R15_(j9k8o2l0)#1363:  u_8,0#422 + u_9,0#426 - _e_8,9,2#620 - _e_9,8,2#638 <= 1
 R15_(j9k8o2l1)#1364:  u_8,2#423 + u_9,2#427 - _e_8,9,2#620 - _e_9,8,2#638 <= 1
 R15_(j9k8o3l0)#1365:  u_8,6#424 + u_9,6#428 - _e_8,9,3#621 - _e_9,8,3#639 <= 1
 R15_(j9k8o3l1)#1366:  u_8,1#425 + u_9,1#429 - _e_8,9,3#621 - _e_9,8,3#639 <= 1
 R16_(j0k0o2l0)#1367:  2 _e_0,0,2#640 <= 1
 R16_(j0k0o2l1)#1368:  2 _e_0,0,2#640 <= 1
 R16_(j0k0o3l0)#1369:  2 _e_0,0,3#641 <= 1
 R16_(j0k0o3l1)#1370:  2 _e_0,0,3#641 <= 1
 R16_(j0k1o2l0)#1371:  _e_0,1,2#460 + _e_1,0,2#478 <= 1
 R16_(j0k1o2l1)#1372:  _e_0,1,2#460 + _e_1,0,2#478 <= 1
 R16_(j0k1o3l0)#1373:  _e_0,1,3#461 + _e_1,0,3#479 <= 1
 R16_(j0k1o3l1)#1374:  _e_0,1,3#461 + _e_1,0,3#479 <= 1
 R16_(j0k2o2l0)#1375:  _e_0,2,2#462 + _e_2,0,2#496 <= 1
 R16_(j0k2o2l1)#1376:  _e_0,2,2#462 + _e_2,0,2#496 <= 1
 R16_(j0k2o3l0)#1377:  _e_0,2,3#463 + _e_2,0,3#497 <= 1
 R16_(j0k2o3l1)#1378:  _e_0,2,3#463 + _e_2,0,3#497 <= 1
 R16_(j0k3o2l0)#1379:  _e_0,3,2#464 + _e_3,0,2#514 <= 1
 R16_(j0k3o2l1)#1380:  _e_0,3,2#464 + _e_3,0,2#514 <= 1
 R16_(j0k3o3l0)#1381:  _e_0,3,3#465 + _e_3,0,3#515 <= 1
 R16_(j0k3o3l1)#1382:  _e_0,3,3#465 + _e_3,0,3#515 <= 1
 R16_(j0k4o2l0)#1383:  _e_0,4,2#466 + _e_4,0,2#532 <= 1
 R16_(j0k4o2l1)#1384:  _e_0,4,2#466 + _e_4,0,2#532 <= 1
 R16_(j0k4o3l0)#1385:  _e_0,4,3#467 + _e_4,0,3#533 <= 1
 R16_(j0k4o3l1)#1386:  _e_0,4,3#467 + _e_4,0,3#533 <= 1
 R16_(j0k5o2l0)#1387:  _e_0,5,2#468 + _e_5,0,2#550 <= 1
 R16_(j0k5o2l1)#1388:  _e_0,5,2#468 + _e_5,0,2#550 <= 1
 R16_(j0k5o3l0)#1389:  _e_0,5,3#469 + _e_5,0,3#551 <= 1
 R16_(j0k5o3l1)#1390:  _e_0,5,3#469 + _e_5,0,3#551 <= 1
 R16_(j0k6o2l0)#1391:  _e_0,6,2#470 + _e_6,0,2#568 <= 1
 R16_(j0k6o2l1)#1392:  _e_0,6,2#470 + _e_6,0,2#568 <= 1
 R16_(j0k6o3l0)#1393:  _e_0,6,3#471 + _e_6,0,3#569 <= 1
 R16_(j0k6o3l1)#1394:  _e_0,6,3#471 + _e_6,0,3#569 <= 1
 R16_(j0k7o2l0)#1395:  _e_0,7,2#472 + _e_7,0,2#586 <= 1
 R16_(j0k7o2l1)#1396:  _e_0,7,2#472 + _e_7,0,2#586 <= 1
 R16_(j0k7o3l0)#1397:  _e_0,7,3#473 + _e_7,0,3#587 <= 1
 R16_(j0k7o3l1)#1398:  _e_0,7,3#473 + _e_7,0,3#587 <= 1
 R16_(j0k8o2l0)#1399:  _e_0,8,2#474 + _e_8,0,2#604 <= 1
 R16_(j0k8o2l1)#1400:  _e_0,8,2#474 + _e_8,0,2#604 <= 1
 R16_(j0k8o3l0)#1401:  _e_0,8,3#475 + _e_8,0,3#605 <= 1
 R16_(j0k8o3l1)#1402:  _e_0,8,3#475 + _e_8,0,3#605 <= 1
 R16_(j0k9o2l0)#1403:  _e_0,9,2#476 + _e_9,0,2#622 <= 1
 R16_(j0k9o2l1)#1404:  _e_0,9,2#476 + _e_9,0,2#622 <= 1
 R16_(j0k9o3l0)#1405:  _e_0,9,3#477 + _e_9,0,3#623 <= 1
 R16_(j0k9o3l1)#1406:  _e_0,9,3#477 + _e_9,0,3#623 <= 1
 R16_(j1k0o2l0)#1407:  _e_0,1,2#460 + _e_1,0,2#478 <= 1
 R16_(j1k0o2l1)#1408:  _e_0,1,2#460 + _e_1,0,2#478 <= 1
 R16_(j1k0o3l0)#1409:  _e_0,1,3#461 + _e_1,0,3#479 <= 1
 R16_(j1k0o3l1)#1410:  _e_0,1,3#461 + _e_1,0,3#479 <= 1
 R16_(j1k1o2l0)#1411:  2 _e_1,1,2#642 <= 1
 R16_(j1k1o2l1)#1412:  2 _e_1,1,2#642 <= 1
 R16_(j1k1o3l0)#1413:  2 _e_1,1,3#643 <= 1
 R16_(j1k1o3l1)#1414:  2 _e_1,1,3#643 <= 1
 R16_(j1k2o2l0)#1415:  _e_1,2,2#480 + _e_2,1,2#498 <= 1
 R16_(j1k2o2l1)#1416:  _e_1,2,2#480 + _e_2,1,2#498 <= 1
 R16_(j1k2o3l0)#1417:  _e_1,2,3#481 + _e_2,1,3#499 <= 1
 R16_(j1k2o3l1)#1418:  _e_1,2,3#481 + _e_2,1,3#499 <= 1
 R16_(j1k3o2l0)#1419:  _e_1,3,2#482 + _e_3,1,2#516 <= 1
 R16_(j1k3o2l1)#1420:  _e_1,3,2#482 + _e_3,1,2#516 <= 1
 R16_(j1k3o3l0)#1421:  _e_1,3,3#483 + _e_3,1,3#517 <= 1
 R16_(j1k3o3l1)#1422:  _e_1,3,3#483 + _e_3,1,3#517 <= 1
 R16_(j1k4o2l0)#1423:  _e_1,4,2#484 + _e_4,1,2#534 <= 1
 R16_(j1k4o2l1)#1424:  _e_1,4,2#484 + _e_4,1,2#534 <= 1
 R16_(j1k4o3l0)#1425:  _e_1,4,3#485 + _e_4,1,3#535 <= 1
 R16_(j1k4o3l1)#1426:  _e_1,4,3#485 + _e_4,1,3#535 <= 1
 R16_(j1k5o2l0)#1427:  _e_1,5,2#486 + _e_5,1,2#552 <= 1
 R16_(j1k5o2l1)#1428:  _e_1,5,2#486 + _e_5,1,2#552 <= 1
 R16_(j1k5o3l0)#1429:  _e_1,5,3#487 + _e_5,1,3#553 <= 1
 R16_(j1k5o3l1)#1430:  _e_1,5,3#487 + _e_5,1,3#553 <= 1
 R16_(j1k6o2l0)#1431:  _e_1,6,2#488 + _e_6,1,2#570 <= 1
 R16_(j1k6o2l1)#1432:  _e_1,6,2#488 + _e_6,1,2#570 <= 1
 R16_(j1k6o3l0)#1433:  _e_1,6,3#489 + _e_6,1,3#571 <= 1
 R16_(j1k6o3l1)#1434:  _e_1,6,3#489 + _e_6,1,3#571 <= 1
 R16_(j1k7o2l0)#1435:  _e_1,7,2#490 + _e_7,1,2#588 <= 1
 R16_(j1k7o2l1)#1436:  _e_1,7,2#490 + _e_7,1,2#588 <= 1
 R16_(j1k7o3l0)#1437:  _e_1,7,3#491 + _e_7,1,3#589 <= 1
 R16_(j1k7o3l1)#1438:  _e_1,7,3#491 + _e_7,1,3#589 <= 1
 R16_(j1k8o2l0)#1439:  _e_1,8,2#492 + _e_8,1,2#606 <= 1
 R16_(j1k8o2l1)#1440:  _e_1,8,2#492 + _e_8,1,2#606 <= 1
 R16_(j1k8o3l0)#1441:  _e_1,8,3#493 + _e_8,1,3#607 <= 1
 R16_(j1k8o3l1)#1442:  _e_1,8,3#493 + _e_8,1,3#607 <= 1
 R16_(j1k9o2l0)#1443:  _e_1,9,2#494 + _e_9,1,2#624 <= 1
 R16_(j1k9o2l1)#1444:  _e_1,9,2#494 + _e_9,1,2#624 <= 1
 R16_(j1k9o3l0)#1445:  _e_1,9,3#495 + _e_9,1,3#625 <= 1
 R16_(j1k9o3l1)#1446:  _e_1,9,3#495 + _e_9,1,3#625 <= 1
 R16_(j2k0o2l0)#1447:  _e_0,2,2#462 + _e_2,0,2#496 <= 1
 R16_(j2k0o2l1)#1448:  _e_0,2,2#462 + _e_2,0,2#496 <= 1
 R16_(j2k0o3l0)#1449:  _e_0,2,3#463 + _e_2,0,3#497 <= 1
 R16_(j2k0o3l1)#1450:  _e_0,2,3#463 + _e_2,0,3#497 <= 1
 R16_(j2k1o2l0)#1451:  _e_1,2,2#480 + _e_2,1,2#498 <= 1
 R16_(j2k1o2l1)#1452:  _e_1,2,2#480 + _e_2,1,2#498 <= 1
 R16_(j2k1o3l0)#1453:  _e_1,2,3#481 + _e_2,1,3#499 <= 1
 R16_(j2k1o3l1)#1454:  _e_1,2,3#481 + _e_2,1,3#499 <= 1
 R16_(j2k2o2l0)#1455:  2 _e_2,2,2#644 <= 1
 R16_(j2k2o2l1)#1456:  2 _e_2,2,2#644 <= 1
 R16_(j2k2o3l0)#1457:  2 _e_2,2,3#645 <= 1
 R16_(j2k2o3l1)#1458:  2 _e_2,2,3#645 <= 1
 R16_(j2k3o2l0)#1459:  _e_2,3,2#500 + _e_3,2,2#518 <= 1
 R16_(j2k3o2l1)#1460:  _e_2,3,2#500 + _e_3,2,2#518 <= 1
 R16_(j2k3o3l0)#1461:  _e_2,3,3#501 + _e_3,2,3#519 <= 1
 R16_(j2k3o3l1)#1462:  _e_2,3,3#501 + _e_3,2,3#519 <= 1
 R16_(j2k4o2l0)#1463:  _e_2,4,2#502 + _e_4,2,2#536 <= 1
 R16_(j2k4o2l1)#1464:  _e_2,4,2#502 + _e_4,2,2#536 <= 1
 R16_(j2k4o3l0)#1465:  _e_2,4,3#503 + _e_4,2,3#537 <= 1
 R16_(j2k4o3l1)#1466:  _e_2,4,3#503 + _e_4,2,3#537 <= 1
 R16_(j2k5o2l0)#1467:  _e_2,5,2#504 + _e_5,2,2#554 <= 1
 R16_(j2k5o2l1)#1468:  _e_2,5,2#504 + _e_5,2,2#554 <= 1
 R16_(j2k5o3l0)#1469:  _e_2,5,3#505 + _e_5,2,3#555 <= 1
 R16_(j2k5o3l1)#1470:  _e_2,5,3#505 + _e_5,2,3#555 <= 1
 R16_(j2k6o2l0)#1471:  _e_2,6,2#506 + _e_6,2,2#572 <= 1
 R16_(j2k6o2l1)#1472:  _e_2,6,2#506 + _e_6,2,2#572 <= 1
 R16_(j2k6o3l0)#1473:  _e_2,6,3#507 + _e_6,2,3#573 <= 1
 R16_(j2k6o3l1)#1474:  _e_2,6,3#507 + _e_6,2,3#573 <= 1
 R16_(j2k7o2l0)#1475:  _e_2,7,2#508 + _e_7,2,2#590 <= 1
 R16_(j2k7o2l1)#1476:  _e_2,7,2#508 + _e_7,2,2#590 <= 1
 R16_(j2k7o3l0)#1477:  _e_2,7,3#509 + _e_7,2,3#591 <= 1
 R16_(j2k7o3l1)#1478:  _e_2,7,3#509 + _e_7,2,3#591 <= 1
 R16_(j2k8o2l0)#1479:  _e_2,8,2#510 + _e_8,2,2#608 <= 1
 R16_(j2k8o2l1)#1480:  _e_2,8,2#510 + _e_8,2,2#608 <= 1
 R16_(j2k8o3l0)#1481:  _e_2,8,3#511 + _e_8,2,3#609 <= 1
 R16_(j2k8o3l1)#1482:  _e_2,8,3#511 + _e_8,2,3#609 <= 1
 R16_(j2k9o2l0)#1483:  _e_2,9,2#512 + _e_9,2,2#626 <= 1
 R16_(j2k9o2l1)#1484:  _e_2,9,2#512 + _e_9,2,2#626 <= 1
 R16_(j2k9o3l0)#1485:  _e_2,9,3#513 + _e_9,2,3#627 <= 1
 R16_(j2k9o3l1)#1486:  _e_2,9,3#513 + _e_9,2,3#627 <= 1
 R16_(j3k0o2l0)#1487:  _e_0,3,2#464 + _e_3,0,2#514 <= 1
 R16_(j3k0o2l1)#1488:  _e_0,3,2#464 + _e_3,0,2#514 <= 1
 R16_(j3k0o3l0)#1489:  _e_0,3,3#465 + _e_3,0,3#515 <= 1
 R16_(j3k0o3l1)#1490:  _e_0,3,3#465 + _e_3,0,3#515 <= 1
 R16_(j3k1o2l0)#1491:  _e_1,3,2#482 + _e_3,1,2#516 <= 1
 R16_(j3k1o2l1)#1492:  _e_1,3,2#482 + _e_3,1,2#516 <= 1
 R16_(j3k1o3l0)#1493:  _e_1,3,3#483 + _e_3,1,3#517 <= 1
 R16_(j3k1o3l1)#1494:  _e_1,3,3#483 + _e_3,1,3#517 <= 1
 R16_(j3k2o2l0)#1495:  _e_2,3,2#500 + _e_3,2,2#518 <= 1
 R16_(j3k2o2l1)#1496:  _e_2,3,2#500 + _e_3,2,2#518 <= 1
 R16_(j3k2o3l0)#1497:  _e_2,3,3#501 + _e_3,2,3#519 <= 1
 R16_(j3k2o3l1)#1498:  _e_2,3,3#501 + _e_3,2,3#519 <= 1
 R16_(j3k3o2l0)#1499:  2 _e_3,3,2#646 <= 1
 R16_(j3k3o2l1)#1500:  2 _e_3,3,2#646 <= 1
 R16_(j3k3o3l0)#1501:  2 _e_3,3,3#647 <= 1
 R16_(j3k3o3l1)#1502:  2 _e_3,3,3#647 <= 1
 R16_(j3k4o2l0)#1503:  _e_3,4,2#520 + _e_4,3,2#538 <= 1
 R16_(j3k4o2l1)#1504:  _e_3,4,2#520 + _e_4,3,2#538 <= 1
 R16_(j3k4o3l0)#1505:  _e_3,4,3#521 + _e_4,3,3#539 <= 1
 R16_(j3k4o3l1)#1506:  _e_3,4,3#521 + _e_4,3,3#539 <= 1
 R16_(j3k5o2l0)#1507:  _e_3,5,2#522 + _e_5,3,2#556 <= 1
 R16_(j3k5o2l1)#1508:  _e_3,5,2#522 + _e_5,3,2#556 <= 1
 R16_(j3k5o3l0)#1509:  _e_3,5,3#523 + _e_5,3,3#557 <= 1
 R16_(j3k5o3l1)#1510:  _e_3,5,3#523 + _e_5,3,3#557 <= 1
 R16_(j3k6o2l0)#1511:  _e_3,6,2#524 + _e_6,3,2#574 <= 1
 R16_(j3k6o2l1)#1512:  _e_3,6,2#524 + _e_6,3,2#574 <= 1
 R16_(j3k6o3l0)#1513:  _e_3,6,3#525 + _e_6,3,3#575 <= 1
 R16_(j3k6o3l1)#1514:  _e_3,6,3#525 + _e_6,3,3#575 <= 1
 R16_(j3k7o2l0)#1515:  _e_3,7,2#526 + _e_7,3,2#592 <= 1
 R16_(j3k7o2l1)#1516:  _e_3,7,2#526 + _e_7,3,2#592 <= 1
 R16_(j3k7o3l0)#1517:  _e_3,7,3#527 + _e_7,3,3#593 <= 1
 R16_(j3k7o3l1)#1518:  _e_3,7,3#527 + _e_7,3,3#593 <= 1
 R16_(j3k8o2l0)#1519:  _e_3,8,2#528 + _e_8,3,2#610 <= 1
 R16_(j3k8o2l1)#1520:  _e_3,8,2#528 + _e_8,3,2#610 <= 1
 R16_(j3k8o3l0)#1521:  _e_3,8,3#529 + _e_8,3,3#611 <= 1
 R16_(j3k8o3l1)#1522:  _e_3,8,3#529 + _e_8,3,3#611 <= 1
 R16_(j3k9o2l0)#1523:  _e_3,9,2#530 + _e_9,3,2#628 <= 1
 R16_(j3k9o2l1)#1524:  _e_3,9,2#530 + _e_9,3,2#628 <= 1
 R16_(j3k9o3l0)#1525:  _e_3,9,3#531 + _e_9,3,3#629 <= 1
 R16_(j3k9o3l1)#1526:  _e_3,9,3#531 + _e_9,3,3#629 <= 1
 R16_(j4k0o2l0)#1527:  _e_0,4,2#466 + _e_4,0,2#532 <= 1
 R16_(j4k0o2l1)#1528:  _e_0,4,2#466 + _e_4,0,2#532 <= 1
 R16_(j4k0o3l0)#1529:  _e_0,4,3#467 + _e_4,0,3#533 <= 1
 R16_(j4k0o3l1)#1530:  _e_0,4,3#467 + _e_4,0,3#533 <= 1
 R16_(j4k1o2l0)#1531:  _e_1,4,2#484 + _e_4,1,2#534 <= 1
 R16_(j4k1o2l1)#1532:  _e_1,4,2#484 + _e_4,1,2#534 <= 1
 R16_(j4k1o3l0)#1533:  _e_1,4,3#485 + _e_4,1,3#535 <= 1
 R16_(j4k1o3l1)#1534:  _e_1,4,3#485 + _e_4,1,3#535 <= 1
 R16_(j4k2o2l0)#1535:  _e_2,4,2#502 + _e_4,2,2#536 <= 1
 R16_(j4k2o2l1)#1536:  _e_2,4,2#502 + _e_4,2,2#536 <= 1
 R16_(j4k2o3l0)#1537:  _e_2,4,3#503 + _e_4,2,3#537 <= 1
 R16_(j4k2o3l1)#1538:  _e_2,4,3#503 + _e_4,2,3#537 <= 1
 R16_(j4k3o2l0)#1539:  _e_3,4,2#520 + _e_4,3,2#538 <= 1
 R16_(j4k3o2l1)#1540:  _e_3,4,2#520 + _e_4,3,2#538 <= 1
 R16_(j4k3o3l0)#1541:  _e_3,4,3#521 + _e_4,3,3#539 <= 1
 R16_(j4k3o3l1)#1542:  _e_3,4,3#521 + _e_4,3,3#539 <= 1
 R16_(j4k4o2l0)#1543:  2 _e_4,4,2#648 <= 1
 R16_(j4k4o2l1)#1544:  2 _e_4,4,2#648 <= 1
 R16_(j4k4o3l0)#1545:  2 _e_4,4,3#649 <= 1
 R16_(j4k4o3l1)#1546:  2 _e_4,4,3#649 <= 1
 R16_(j4k5o2l0)#1547:  _e_4,5,2#540 + _e_5,4,2#558 <= 1
 R16_(j4k5o2l1)#1548:  _e_4,5,2#540 + _e_5,4,2#558 <= 1
 R16_(j4k5o3l0)#1549:  _e_4,5,3#541 + _e_5,4,3#559 <= 1
 R16_(j4k5o3l1)#1550:  _e_4,5,3#541 + _e_5,4,3#559 <= 1
 R16_(j4k6o2l0)#1551:  _e_4,6,2#542 + _e_6,4,2#576 <= 1
 R16_(j4k6o2l1)#1552:  _e_4,6,2#542 + _e_6,4,2#576 <= 1
 R16_(j4k6o3l0)#1553:  _e_4,6,3#543 + _e_6,4,3#577 <= 1
 R16_(j4k6o3l1)#1554:  _e_4,6,3#543 + _e_6,4,3#577 <= 1
 R16_(j4k7o2l0)#1555:  _e_4,7,2#544 + _e_7,4,2#594 <= 1
 R16_(j4k7o2l1)#1556:  _e_4,7,2#544 + _e_7,4,2#594 <= 1
 R16_(j4k7o3l0)#1557:  _e_4,7,3#545 + _e_7,4,3#595 <= 1
 R16_(j4k7o3l1)#1558:  _e_4,7,3#545 + _e_7,4,3#595 <= 1
 R16_(j4k8o2l0)#1559:  _e_4,8,2#546 + _e_8,4,2#612 <= 1
 R16_(j4k8o2l1)#1560:  _e_4,8,2#546 + _e_8,4,2#612 <= 1
 R16_(j4k8o3l0)#1561:  _e_4,8,3#547 + _e_8,4,3#613 <= 1
 R16_(j4k8o3l1)#1562:  _e_4,8,3#547 + _e_8,4,3#613 <= 1
 R16_(j4k9o2l0)#1563:  _e_4,9,2#548 + _e_9,4,2#630 <= 1
 R16_(j4k9o2l1)#1564:  _e_4,9,2#548 + _e_9,4,2#630 <= 1
 R16_(j4k9o3l0)#1565:  _e_4,9,3#549 + _e_9,4,3#631 <= 1
 R16_(j4k9o3l1)#1566:  _e_4,9,3#549 + _e_9,4,3#631 <= 1
 R16_(j5k0o2l0)#1567:  _e_0,5,2#468 + _e_5,0,2#550 <= 1
 R16_(j5k0o2l1)#1568:  _e_0,5,2#468 + _e_5,0,2#550 <= 1
 R16_(j5k0o3l0)#1569:  _e_0,5,3#469 + _e_5,0,3#551 <= 1
 R16_(j5k0o3l1)#1570:  _e_0,5,3#469 + _e_5,0,3#551 <= 1
 R16_(j5k1o2l0)#1571:  _e_1,5,2#486 + _e_5,1,2#552 <= 1
 R16_(j5k1o2l1)#1572:  _e_1,5,2#486 + _e_5,1,2#552 <= 1
 R16_(j5k1o3l0)#1573:  _e_1,5,3#487 + _e_5,1,3#553 <= 1
 R16_(j5k1o3l1)#1574:  _e_1,5,3#487 + _e_5,1,3#553 <= 1
 R16_(j5k2o2l0)#1575:  _e_2,5,2#504 + _e_5,2,2#554 <= 1
 R16_(j5k2o2l1)#1576:  _e_2,5,2#504 + _e_5,2,2#554 <= 1
 R16_(j5k2o3l0)#1577:  _e_2,5,3#505 + _e_5,2,3#555 <= 1
 R16_(j5k2o3l1)#1578:  _e_2,5,3#505 + _e_5,2,3#555 <= 1
 R16_(j5k3o2l0)#1579:  _e_3,5,2#522 + _e_5,3,2#556 <= 1
 R16_(j5k3o2l1)#1580:  _e_3,5,2#522 + _e_5,3,2#556 <= 1
 R16_(j5k3o3l0)#1581:  _e_3,5,3#523 + _e_5,3,3#557 <= 1
 R16_(j5k3o3l1)#1582:  _e_3,5,3#523 + _e_5,3,3#557 <= 1
 R16_(j5k4o2l0)#1583:  _e_4,5,2#540 + _e_5,4,2#558 <= 1
 R16_(j5k4o2l1)#1584:  _e_4,5,2#540 + _e_5,4,2#558 <= 1
 R16_(j5k4o3l0)#1585:  _e_4,5,3#541 + _e_5,4,3#559 <= 1
 R16_(j5k4o3l1)#1586:  _e_4,5,3#541 + _e_5,4,3#559 <= 1
 R16_(j5k5o2l0)#1587:  2 _e_5,5,2#650 <= 1
 R16_(j5k5o2l1)#1588:  2 _e_5,5,2#650 <= 1
 R16_(j5k5o3l0)#1589:  2 _e_5,5,3#651 <= 1
 R16_(j5k5o3l1)#1590:  2 _e_5,5,3#651 <= 1
 R16_(j5k6o2l0)#1591:  _e_5,6,2#560 + _e_6,5,2#578 <= 1
 R16_(j5k6o2l1)#1592:  _e_5,6,2#560 + _e_6,5,2#578 <= 1
 R16_(j5k6o3l0)#1593:  _e_5,6,3#561 + _e_6,5,3#579 <= 1
 R16_(j5k6o3l1)#1594:  _e_5,6,3#561 + _e_6,5,3#579 <= 1
 R16_(j5k7o2l0)#1595:  _e_5,7,2#562 + _e_7,5,2#596 <= 1
 R16_(j5k7o2l1)#1596:  _e_5,7,2#562 + _e_7,5,2#596 <= 1
 R16_(j5k7o3l0)#1597:  _e_5,7,3#563 + _e_7,5,3#597 <= 1
 R16_(j5k7o3l1)#1598:  _e_5,7,3#563 + _e_7,5,3#597 <= 1
 R16_(j5k8o2l0)#1599:  _e_5,8,2#564 + _e_8,5,2#614 <= 1
 R16_(j5k8o2l1)#1600:  _e_5,8,2#564 + _e_8,5,2#614 <= 1
 R16_(j5k8o3l0)#1601:  _e_5,8,3#565 + _e_8,5,3#615 <= 1
 R16_(j5k8o3l1)#1602:  _e_5,8,3#565 + _e_8,5,3#615 <= 1
 R16_(j5k9o2l0)#1603:  _e_5,9,2#566 + _e_9,5,2#632 <= 1
 R16_(j5k9o2l1)#1604:  _e_5,9,2#566 + _e_9,5,2#632 <= 1
 R16_(j5k9o3l0)#1605:  _e_5,9,3#567 + _e_9,5,3#633 <= 1
 R16_(j5k9o3l1)#1606:  _e_5,9,3#567 + _e_9,5,3#633 <= 1
 R16_(j6k0o2l0)#1607:  _e_0,6,2#470 + _e_6,0,2#568 <= 1
 R16_(j6k0o2l1)#1608:  _e_0,6,2#470 + _e_6,0,2#568 <= 1
 R16_(j6k0o3l0)#1609:  _e_0,6,3#471 + _e_6,0,3#569 <= 1
 R16_(j6k0o3l1)#1610:  _e_0,6,3#471 + _e_6,0,3#569 <= 1
 R16_(j6k1o2l0)#1611:  _e_1,6,2#488 + _e_6,1,2#570 <= 1
 R16_(j6k1o2l1)#1612:  _e_1,6,2#488 + _e_6,1,2#570 <= 1
 R16_(j6k1o3l0)#1613:  _e_1,6,3#489 + _e_6,1,3#571 <= 1
 R16_(j6k1o3l1)#1614:  _e_1,6,3#489 + _e_6,1,3#571 <= 1
 R16_(j6k2o2l0)#1615:  _e_2,6,2#506 + _e_6,2,2#572 <= 1
 R16_(j6k2o2l1)#1616:  _e_2,6,2#506 + _e_6,2,2#572 <= 1
 R16_(j6k2o3l0)#1617:  _e_2,6,3#507 + _e_6,2,3#573 <= 1
 R16_(j6k2o3l1)#1618:  _e_2,6,3#507 + _e_6,2,3#573 <= 1
 R16_(j6k3o2l0)#1619:  _e_3,6,2#524 + _e_6,3,2#574 <= 1
 R16_(j6k3o2l1)#1620:  _e_3,6,2#524 + _e_6,3,2#574 <= 1
 R16_(j6k3o3l0)#1621:  _e_3,6,3#525 + _e_6,3,3#575 <= 1
 R16_(j6k3o3l1)#1622:  _e_3,6,3#525 + _e_6,3,3#575 <= 1
 R16_(j6k4o2l0)#1623:  _e_4,6,2#542 + _e_6,4,2#576 <= 1
 R16_(j6k4o2l1)#1624:  _e_4,6,2#542 + _e_6,4,2#576 <= 1
 R16_(j6k4o3l0)#1625:  _e_4,6,3#543 + _e_6,4,3#577 <= 1
 R16_(j6k4o3l1)#1626:  _e_4,6,3#543 + _e_6,4,3#577 <= 1
 R16_(j6k5o2l0)#1627:  _e_5,6,2#560 + _e_6,5,2#578 <= 1
 R16_(j6k5o2l1)#1628:  _e_5,6,2#560 + _e_6,5,2#578 <= 1
 R16_(j6k5o3l0)#1629:  _e_5,6,3#561 + _e_6,5,3#579 <= 1
 R16_(j6k5o3l1)#1630:  _e_5,6,3#561 + _e_6,5,3#579 <= 1
 R16_(j6k6o2l0)#1631:  2 _e_6,6,2#652 <= 1
 R16_(j6k6o2l1)#1632:  2 _e_6,6,2#652 <= 1
 R16_(j6k6o3l0)#1633:  2 _e_6,6,3#653 <= 1
 R16_(j6k6o3l1)#1634:  2 _e_6,6,3#653 <= 1
 R16_(j6k7o2l0)#1635:  _e_6,7,2#580 + _e_7,6,2#598 <= 1
 R16_(j6k7o2l1)#1636:  _e_6,7,2#580 + _e_7,6,2#598 <= 1
 R16_(j6k7o3l0)#1637:  _e_6,7,3#581 + _e_7,6,3#599 <= 1
 R16_(j6k7o3l1)#1638:  _e_6,7,3#581 + _e_7,6,3#599 <= 1
 R16_(j6k8o2l0)#1639:  _e_6,8,2#582 + _e_8,6,2#616 <= 1
 R16_(j6k8o2l1)#1640:  _e_6,8,2#582 + _e_8,6,2#616 <= 1
 R16_(j6k8o3l0)#1641:  _e_6,8,3#583 + _e_8,6,3#617 <= 1
 R16_(j6k8o3l1)#1642:  _e_6,8,3#583 + _e_8,6,3#617 <= 1
 R16_(j6k9o2l0)#1643:  _e_6,9,2#584 + _e_9,6,2#634 <= 1
 R16_(j6k9o2l1)#1644:  _e_6,9,2#584 + _e_9,6,2#634 <= 1
 R16_(j6k9o3l0)#1645:  _e_6,9,3#585 + _e_9,6,3#635 <= 1
 R16_(j6k9o3l1)#1646:  _e_6,9,3#585 + _e_9,6,3#635 <= 1
 R16_(j7k0o2l0)#1647:  _e_0,7,2#472 + _e_7,0,2#586 <= 1
 R16_(j7k0o2l1)#1648:  _e_0,7,2#472 + _e_7,0,2#586 <= 1
 R16_(j7k0o3l0)#1649:  _e_0,7,3#473 + _e_7,0,3#587 <= 1
 R16_(j7k0o3l1)#1650:  _e_0,7,3#473 + _e_7,0,3#587 <= 1
 R16_(j7k1o2l0)#1651:  _e_1,7,2#490 + _e_7,1,2#588 <= 1
 R16_(j7k1o2l1)#1652:  _e_1,7,2#490 + _e_7,1,2#588 <= 1
 R16_(j7k1o3l0)#1653:  _e_1,7,3#491 + _e_7,1,3#589 <= 1
 R16_(j7k1o3l1)#1654:  _e_1,7,3#491 + _e_7,1,3#589 <= 1
 R16_(j7k2o2l0)#1655:  _e_2,7,2#508 + _e_7,2,2#590 <= 1
 R16_(j7k2o2l1)#1656:  _e_2,7,2#508 + _e_7,2,2#590 <= 1
 R16_(j7k2o3l0)#1657:  _e_2,7,3#509 + _e_7,2,3#591 <= 1
 R16_(j7k2o3l1)#1658:  _e_2,7,3#509 + _e_7,2,3#591 <= 1
 R16_(j7k3o2l0)#1659:  _e_3,7,2#526 + _e_7,3,2#592 <= 1
 R16_(j7k3o2l1)#1660:  _e_3,7,2#526 + _e_7,3,2#592 <= 1
 R16_(j7k3o3l0)#1661:  _e_3,7,3#527 + _e_7,3,3#593 <= 1
 R16_(j7k3o3l1)#1662:  _e_3,7,3#527 + _e_7,3,3#593 <= 1
 R16_(j7k4o2l0)#1663:  _e_4,7,2#544 + _e_7,4,2#594 <= 1
 R16_(j7k4o2l1)#1664:  _e_4,7,2#544 + _e_7,4,2#594 <= 1
 R16_(j7k4o3l0)#1665:  _e_4,7,3#545 + _e_7,4,3#595 <= 1
 R16_(j7k4o3l1)#1666:  _e_4,7,3#545 + _e_7,4,3#595 <= 1
 R16_(j7k5o2l0)#1667:  _e_5,7,2#562 + _e_7,5,2#596 <= 1
 R16_(j7k5o2l1)#1668:  _e_5,7,2#562 + _e_7,5,2#596 <= 1
 R16_(j7k5o3l0)#1669:  _e_5,7,3#563 + _e_7,5,3#597 <= 1
 R16_(j7k5o3l1)#1670:  _e_5,7,3#563 + _e_7,5,3#597 <= 1
 R16_(j7k6o2l0)#1671:  _e_6,7,2#580 + _e_7,6,2#598 <= 1
 R16_(j7k6o2l1)#1672:  _e_6,7,2#580 + _e_7,6,2#598 <= 1
 R16_(j7k6o3l0)#1673:  _e_6,7,3#581 + _e_7,6,3#599 <= 1
 R16_(j7k6o3l1)#1674:  _e_6,7,3#581 + _e_7,6,3#599 <= 1
 R16_(j7k7o2l0)#1675:  2 _e_7,7,2#654 <= 1
 R16_(j7k7o2l1)#1676:  2 _e_7,7,2#654 <= 1
 R16_(j7k7o3l0)#1677:  2 _e_7,7,3#655 <= 1
 R16_(j7k7o3l1)#1678:  2 _e_7,7,3#655 <= 1
 R16_(j7k8o2l0)#1679:  _e_7,8,2#600 + _e_8,7,2#618 <= 1
 R16_(j7k8o2l1)#1680:  _e_7,8,2#600 + _e_8,7,2#618 <= 1
 R16_(j7k8o3l0)#1681:  _e_7,8,3#601 + _e_8,7,3#619 <= 1
 R16_(j7k8o3l1)#1682:  _e_7,8,3#601 + _e_8,7,3#619 <= 1
 R16_(j7k9o2l0)#1683:  _e_7,9,2#602 + _e_9,7,2#636 <= 1
 R16_(j7k9o2l1)#1684:  _e_7,9,2#602 + _e_9,7,2#636 <= 1
 R16_(j7k9o3l0)#1685:  _e_7,9,3#603 + _e_9,7,3#637 <= 1
 R16_(j7k9o3l1)#1686:  _e_7,9,3#603 + _e_9,7,3#637 <= 1
 R16_(j8k0o2l0)#1687:  _e_0,8,2#474 + _e_8,0,2#604 <= 1
 R16_(j8k0o2l1)#1688:  _e_0,8,2#474 + _e_8,0,2#604 <= 1
 R16_(j8k0o3l0)#1689:  _e_0,8,3#475 + _e_8,0,3#605 <= 1
 R16_(j8k0o3l1)#1690:  _e_0,8,3#475 + _e_8,0,3#605 <= 1
 R16_(j8k1o2l0)#1691:  _e_1,8,2#492 + _e_8,1,2#606 <= 1
 R16_(j8k1o2l1)#1692:  _e_1,8,2#492 + _e_8,1,2#606 <= 1
 R16_(j8k1o3l0)#1693:  _e_1,8,3#493 + _e_8,1,3#607 <= 1
 R16_(j8k1o3l1)#1694:  _e_1,8,3#493 + _e_8,1,3#607 <= 1
 R16_(j8k2o2l0)#1695:  _e_2,8,2#510 + _e_8,2,2#608 <= 1
 R16_(j8k2o2l1)#1696:  _e_2,8,2#510 + _e_8,2,2#608 <= 1
 R16_(j8k2o3l0)#1697:  _e_2,8,3#511 + _e_8,2,3#609 <= 1
 R16_(j8k2o3l1)#1698:  _e_2,8,3#511 + _e_8,2,3#609 <= 1
 R16_(j8k3o2l0)#1699:  _e_3,8,2#528 + _e_8,3,2#610 <= 1
 R16_(j8k3o2l1)#1700:  _e_3,8,2#528 + _e_8,3,2#610 <= 1
 R16_(j8k3o3l0)#1701:  _e_3,8,3#529 + _e_8,3,3#611 <= 1
 R16_(j8k3o3l1)#1702:  _e_3,8,3#529 + _e_8,3,3#611 <= 1
 R16_(j8k4o2l0)#1703:  _e_4,8,2#546 + _e_8,4,2#612 <= 1
 R16_(j8k4o2l1)#1704:  _e_4,8,2#546 + _e_8,4,2#612 <= 1
 R16_(j8k4o3l0)#1705:  _e_4,8,3#547 + _e_8,4,3#613 <= 1
 R16_(j8k4o3l1)#1706:  _e_4,8,3#547 + _e_8,4,3#613 <= 1
 R16_(j8k5o2l0)#1707:  _e_5,8,2#564 + _e_8,5,2#614 <= 1
 R16_(j8k5o2l1)#1708:  _e_5,8,2#564 + _e_8,5,2#614 <= 1
 R16_(j8k5o3l0)#1709:  _e_5,8,3#565 + _e_8,5,3#615 <= 1
 R16_(j8k5o3l1)#1710:  _e_5,8,3#565 + _e_8,5,3#615 <= 1
 R16_(j8k6o2l0)#1711:  _e_6,8,2#582 + _e_8,6,2#616 <= 1
 R16_(j8k6o2l1)#1712:  _e_6,8,2#582 + _e_8,6,2#616 <= 1
 R16_(j8k6o3l0)#1713:  _e_6,8,3#583 + _e_8,6,3#617 <= 1
 R16_(j8k6o3l1)#1714:  _e_6,8,3#583 + _e_8,6,3#617 <= 1
 R16_(j8k7o2l0)#1715:  _e_7,8,2#600 + _e_8,7,2#618 <= 1
 R16_(j8k7o2l1)#1716:  _e_7,8,2#600 + _e_8,7,2#618 <= 1
 R16_(j8k7o3l0)#1717:  _e_7,8,3#601 + _e_8,7,3#619 <= 1
 R16_(j8k7o3l1)#1718:  _e_7,8,3#601 + _e_8,7,3#619 <= 1
 R16_(j8k8o2l0)#1719:  2 _e_8,8,2#656 <= 1
 R16_(j8k8o2l1)#1720:  2 _e_8,8,2#656 <= 1
 R16_(j8k8o3l0)#1721:  2 _e_8,8,3#657 <= 1
 R16_(j8k8o3l1)#1722:  2 _e_8,8,3#657 <= 1
 R16_(j8k9o2l0)#1723:  _e_8,9,2#620 + _e_9,8,2#638 <= 1
 R16_(j8k9o2l1)#1724:  _e_8,9,2#620 + _e_9,8,2#638 <= 1
 R16_(j8k9o3l0)#1725:  _e_8,9,3#621 + _e_9,8,3#639 <= 1
 R16_(j8k9o3l1)#1726:  _e_8,9,3#621 + _e_9,8,3#639 <= 1
 R16_(j9k0o2l0)#1727:  _e_0,9,2#476 + _e_9,0,2#622 <= 1
 R16_(j9k0o2l1)#1728:  _e_0,9,2#476 + _e_9,0,2#622 <= 1
 R16_(j9k0o3l0)#1729:  _e_0,9,3#477 + _e_9,0,3#623 <= 1
 R16_(j9k0o3l1)#1730:  _e_0,9,3#477 + _e_9,0,3#623 <= 1
 R16_(j9k1o2l0)#1731:  _e_1,9,2#494 + _e_9,1,2#624 <= 1
 R16_(j9k1o2l1)#1732:  _e_1,9,2#494 + _e_9,1,2#624 <= 1
 R16_(j9k1o3l0)#1733:  _e_1,9,3#495 + _e_9,1,3#625 <= 1
 R16_(j9k1o3l1)#1734:  _e_1,9,3#495 + _e_9,1,3#625 <= 1
 R16_(j9k2o2l0)#1735:  _e_2,9,2#512 + _e_9,2,2#626 <= 1
 R16_(j9k2o2l1)#1736:  _e_2,9,2#512 + _e_9,2,2#626 <= 1
 R16_(j9k2o3l0)#1737:  _e_2,9,3#513 + _e_9,2,3#627 <= 1
 R16_(j9k2o3l1)#1738:  _e_2,9,3#513 + _e_9,2,3#627 <= 1
 R16_(j9k3o2l0)#1739:  _e_3,9,2#530 + _e_9,3,2#628 <= 1
 R16_(j9k3o2l1)#1740:  _e_3,9,2#530 + _e_9,3,2#628 <= 1
 R16_(j9k3o3l0)#1741:  _e_3,9,3#531 + _e_9,3,3#629 <= 1
 R16_(j9k3o3l1)#1742:  _e_3,9,3#531 + _e_9,3,3#629 <= 1
 R16_(j9k4o2l0)#1743:  _e_4,9,2#548 + _e_9,4,2#630 <= 1
 R16_(j9k4o2l1)#1744:  _e_4,9,2#548 + _e_9,4,2#630 <= 1
 R16_(j9k4o3l0)#1745:  _e_4,9,3#549 + _e_9,4,3#631 <= 1
 R16_(j9k4o3l1)#1746:  _e_4,9,3#549 + _e_9,4,3#631 <= 1
 R16_(j9k5o2l0)#1747:  _e_5,9,2#566 + _e_9,5,2#632 <= 1
 R16_(j9k5o2l1)#1748:  _e_5,9,2#566 + _e_9,5,2#632 <= 1
 R16_(j9k5o3l0)#1749:  _e_5,9,3#567 + _e_9,5,3#633 <= 1
 R16_(j9k5o3l1)#1750:  _e_5,9,3#567 + _e_9,5,3#633 <= 1
 R16_(j9k6o2l0)#1751:  _e_6,9,2#584 + _e_9,6,2#634 <= 1
 R16_(j9k6o2l1)#1752:  _e_6,9,2#584 + _e_9,6,2#634 <= 1
 R16_(j9k6o3l0)#1753:  _e_6,9,3#585 + _e_9,6,3#635 <= 1
 R16_(j9k6o3l1)#1754:  _e_6,9,3#585 + _e_9,6,3#635 <= 1
 R16_(j9k7o2l0)#1755:  _e_7,9,2#602 + _e_9,7,2#636 <= 1
 R16_(j9k7o2l1)#1756:  _e_7,9,2#602 + _e_9,7,2#636 <= 1
 R16_(j9k7o3l0)#1757:  _e_7,9,3#603 + _e_9,7,3#637 <= 1
 R16_(j9k7o3l1)#1758:  _e_7,9,3#603 + _e_9,7,3#637 <= 1
 R16_(j9k8o2l0)#1759:  _e_8,9,2#620 + _e_9,8,2#638 <= 1
 R16_(j9k8o2l1)#1760:  _e_8,9,2#620 + _e_9,8,2#638 <= 1
 R16_(j9k8o3l0)#1761:  _e_8,9,3#621 + _e_9,8,3#639 <= 1
 R16_(j9k8o3l1)#1762:  _e_8,9,3#621 + _e_9,8,3#639 <= 1
 R16_(j9k9o2l0)#1763:  2 _e_9,9,2#658 <= 1
 R16_(j9k9o2l1)#1764:  2 _e_9,9,2#658 <= 1
 R16_(j9k9o3l0)#1765:  2 _e_9,9,3#659 <= 1
 R16_(j9k9o3l1)#1766:  2 _e_9,9,3#659 <= 1
 R17_(j0o0b0l0)#1767:  s_0,0#10 - 980 x_0,0,4#60 - S_0,4#430 >= -980
 R17_(j0o0b1l0)#1768:  s_0,0#10 - 980 x_0,1,4#61 - S_1,4#431 >= -980
 R17_(j0o0b2l0)#1769:  s_0,0#10 - 980 x_0,2,4#62 - S_2,4#432 >= -980
 R17_(j0o0b3l0)#1770:  s_0,0#10 - 980 x_0,3,4#63 - S_3,4#433 >= -980
 R17_(j0o0b4l0)#1771:  s_0,0#10 - 980 x_0,4,4#64 - S_4,4#434 >= -980
 R17_(j0o0b5l0)#1772:  s_0,0#10 - 980 x_0,5,4#65 - S_5,4#435 >= -980
 R17_(j0o0b6l0)#1773:  s_0,0#10 - 980 x_0,6,4#66 - S_6,4#436 >= -980
 R17_(j0o0b7l0)#1774:  s_0,0#10 - 980 x_0,7,4#67 - S_7,4#437 >= -980
 R17_(j0o0b8l0)#1775:  s_0,0#10 - 980 x_0,8,4#68 - S_8,4#438 >= -980
 R17_(j0o0b9l0)#1776:  s_0,0#10 - 980 x_0,9,4#69 - S_9,4#439 >= -980
 R17_(j0o1b0l0)#1777:  s_0,1#11 - 980 x_0,0,3#70 - S_0,3#440 >= -980
 R17_(j0o1b1l0)#1778:  s_0,1#11 - 980 x_0,1,3#71 - S_1,3#441 >= -980
 R17_(j0o1b2l0)#1779:  s_0,1#11 - 980 x_0,2,3#72 - S_2,3#442 >= -980
 R17_(j0o1b3l0)#1780:  s_0,1#11 - 980 x_0,3,3#73 - S_3,3#443 >= -980
 R17_(j0o1b4l0)#1781:  s_0,1#11 - 980 x_0,4,3#74 - S_4,3#444 >= -980
 R17_(j0o1b5l0)#1782:  s_0,1#11 - 980 x_0,5,3#75 - S_5,3#445 >= -980
 R17_(j0o1b6l0)#1783:  s_0,1#11 - 980 x_0,6,3#76 - S_6,3#446 >= -980
 R17_(j0o1b7l0)#1784:  s_0,1#11 - 980 x_0,7,3#77 - S_7,3#447 >= -980
 R17_(j0o1b8l0)#1785:  s_0,1#11 - 980 x_0,8,3#78 - S_8,3#448 >= -980
 R17_(j0o1b9l0)#1786:  s_0,1#11 - 980 x_0,9,3#79 - S_9,3#449 >= -980
 R17_(j0o4b0l0)#1787:  s_0,4#14 - 980 x_0,0,5#80 - S_0,5#450 >= -980
 R17_(j0o4b1l0)#1788:  s_0,4#14 - 980 x_0,1,5#81 - S_1,5#451 >= -980
 R17_(j0o4b2l0)#1789:  s_0,4#14 - 980 x_0,2,5#82 - S_2,5#452 >= -980
 R17_(j0o4b3l0)#1790:  s_0,4#14 - 980 x_0,3,5#83 - S_3,5#453 >= -980
 R17_(j0o4b4l0)#1791:  s_0,4#14 - 980 x_0,4,5#84 - S_4,5#454 >= -980
 R17_(j0o4b5l0)#1792:  s_0,4#14 - 980 x_0,5,5#85 - S_5,5#455 >= -980
 R17_(j0o4b6l0)#1793:  s_0,4#14 - 980 x_0,6,5#86 - S_6,5#456 >= -980
 R17_(j0o4b7l0)#1794:  s_0,4#14 - 980 x_0,7,5#87 - S_7,5#457 >= -980
 R17_(j0o4b8l0)#1795:  s_0,4#14 - 980 x_0,8,5#88 - S_8,5#458 >= -980
 R17_(j0o4b9l0)#1796:  s_0,4#14 - 980 x_0,9,5#89 - S_9,5#459 >= -980
 R17_(j1o0b0l0)#1797:  s_1,0#15 - 980 x_1,0,4#90 - S_0,4#430 >= -980
 R17_(j1o0b1l0)#1798:  s_1,0#15 - 980 x_1,1,4#91 - S_1,4#431 >= -980
 R17_(j1o0b2l0)#1799:  s_1,0#15 - 980 x_1,2,4#92 - S_2,4#432 >= -980
 R17_(j1o0b3l0)#1800:  s_1,0#15 - 980 x_1,3,4#93 - S_3,4#433 >= -980
 R17_(j1o0b4l0)#1801:  s_1,0#15 - 980 x_1,4,4#94 - S_4,4#434 >= -980
 R17_(j1o0b5l0)#1802:  s_1,0#15 - 980 x_1,5,4#95 - S_5,4#435 >= -980
 R17_(j1o0b6l0)#1803:  s_1,0#15 - 980 x_1,6,4#96 - S_6,4#436 >= -980
 R17_(j1o0b7l0)#1804:  s_1,0#15 - 980 x_1,7,4#97 - S_7,4#437 >= -980
 R17_(j1o0b8l0)#1805:  s_1,0#15 - 980 x_1,8,4#98 - S_8,4#438 >= -980
 R17_(j1o0b9l0)#1806:  s_1,0#15 - 980 x_1,9,4#99 - S_9,4#439 >= -980
 R17_(j1o1b0l0)#1807:  s_1,1#16 - 980 x_1,0,3#100 - S_0,3#440 >= -980
 R17_(j1o1b1l0)#1808:  s_1,1#16 - 980 x_1,1,3#101 - S_1,3#441 >= -980
 R17_(j1o1b2l0)#1809:  s_1,1#16 - 980 x_1,2,3#102 - S_2,3#442 >= -980
 R17_(j1o1b3l0)#1810:  s_1,1#16 - 980 x_1,3,3#103 - S_3,3#443 >= -980
 R17_(j1o1b4l0)#1811:  s_1,1#16 - 980 x_1,4,3#104 - S_4,3#444 >= -980
 R17_(j1o1b5l0)#1812:  s_1,1#16 - 980 x_1,5,3#105 - S_5,3#445 >= -980
 R17_(j1o1b6l0)#1813:  s_1,1#16 - 980 x_1,6,3#106 - S_6,3#446 >= -980
 R17_(j1o1b7l0)#1814:  s_1,1#16 - 980 x_1,7,3#107 - S_7,3#447 >= -980
 R17_(j1o1b8l0)#1815:  s_1,1#16 - 980 x_1,8,3#108 - S_8,3#448 >= -980
 R17_(j1o1b9l0)#1816:  s_1,1#16 - 980 x_1,9,3#109 - S_9,3#449 >= -980
 R17_(j1o4b0l0)#1817:  s_1,4#19 - 980 x_1,0,5#110 - S_0,5#450 >= -980
 R17_(j1o4b1l0)#1818:  s_1,4#19 - 980 x_1,1,5#111 - S_1,5#451 >= -980
 R17_(j1o4b2l0)#1819:  s_1,4#19 - 980 x_1,2,5#112 - S_2,5#452 >= -980
 R17_(j1o4b3l0)#1820:  s_1,4#19 - 980 x_1,3,5#113 - S_3,5#453 >= -980
 R17_(j1o4b4l0)#1821:  s_1,4#19 - 980 x_1,4,5#114 - S_4,5#454 >= -980
 R17_(j1o4b5l0)#1822:  s_1,4#19 - 980 x_1,5,5#115 - S_5,5#455 >= -980
 R17_(j1o4b6l0)#1823:  s_1,4#19 - 980 x_1,6,5#116 - S_6,5#456 >= -980
 R17_(j1o4b7l0)#1824:  s_1,4#19 - 980 x_1,7,5#117 - S_7,5#457 >= -980
 R17_(j1o4b8l0)#1825:  s_1,4#19 - 980 x_1,8,5#118 - S_8,5#458 >= -980
 R17_(j1o4b9l0)#1826:  s_1,4#19 - 980 x_1,9,5#119 - S_9,5#459 >= -980
 R17_(j2o0b0l0)#1827:  s_2,0#20 - 980 x_2,0,4#120 - S_0,4#430 >= -980
 R17_(j2o0b1l0)#1828:  s_2,0#20 - 980 x_2,1,4#121 - S_1,4#431 >= -980
 R17_(j2o0b2l0)#1829:  s_2,0#20 - 980 x_2,2,4#122 - S_2,4#432 >= -980
 R17_(j2o0b3l0)#1830:  s_2,0#20 - 980 x_2,3,4#123 - S_3,4#433 >= -980
 R17_(j2o0b4l0)#1831:  s_2,0#20 - 980 x_2,4,4#124 - S_4,4#434 >= -980
 R17_(j2o0b5l0)#1832:  s_2,0#20 - 980 x_2,5,4#125 - S_5,4#435 >= -980
 R17_(j2o0b6l0)#1833:  s_2,0#20 - 980 x_2,6,4#126 - S_6,4#436 >= -980
 R17_(j2o0b7l0)#1834:  s_2,0#20 - 980 x_2,7,4#127 - S_7,4#437 >= -980
 R17_(j2o0b8l0)#1835:  s_2,0#20 - 980 x_2,8,4#128 - S_8,4#438 >= -980
 R17_(j2o0b9l0)#1836:  s_2,0#20 - 980 x_2,9,4#129 - S_9,4#439 >= -980
 R17_(j2o1b0l0)#1837:  s_2,1#21 - 980 x_2,0,3#130 - S_0,3#440 >= -980
 R17_(j2o1b1l0)#1838:  s_2,1#21 - 980 x_2,1,3#131 - S_1,3#441 >= -980
 R17_(j2o1b2l0)#1839:  s_2,1#21 - 980 x_2,2,3#132 - S_2,3#442 >= -980
 R17_(j2o1b3l0)#1840:  s_2,1#21 - 980 x_2,3,3#133 - S_3,3#443 >= -980
 R17_(j2o1b4l0)#1841:  s_2,1#21 - 980 x_2,4,3#134 - S_4,3#444 >= -980
 R17_(j2o1b5l0)#1842:  s_2,1#21 - 980 x_2,5,3#135 - S_5,3#445 >= -980
 R17_(j2o1b6l0)#1843:  s_2,1#21 - 980 x_2,6,3#136 - S_6,3#446 >= -980
 R17_(j2o1b7l0)#1844:  s_2,1#21 - 980 x_2,7,3#137 - S_7,3#447 >= -980
 R17_(j2o1b8l0)#1845:  s_2,1#21 - 980 x_2,8,3#138 - S_8,3#448 >= -980
 R17_(j2o1b9l0)#1846:  s_2,1#21 - 980 x_2,9,3#139 - S_9,3#449 >= -980
 R17_(j2o4b0l0)#1847:  s_2,4#24 - 980 x_2,0,5#140 - S_0,5#450 >= -980
 R17_(j2o4b1l0)#1848:  s_2,4#24 - 980 x_2,1,5#141 - S_1,5#451 >= -980
 R17_(j2o4b2l0)#1849:  s_2,4#24 - 980 x_2,2,5#142 - S_2,5#452 >= -980
 R17_(j2o4b3l0)#1850:  s_2,4#24 - 980 x_2,3,5#143 - S_3,5#453 >= -980
 R17_(j2o4b4l0)#1851:  s_2,4#24 - 980 x_2,4,5#144 - S_4,5#454 >= -980
 R17_(j2o4b5l0)#1852:  s_2,4#24 - 980 x_2,5,5#145 - S_5,5#455 >= -980
 R17_(j2o4b6l0)#1853:  s_2,4#24 - 980 x_2,6,5#146 - S_6,5#456 >= -980
 R17_(j2o4b7l0)#1854:  s_2,4#24 - 980 x_2,7,5#147 - S_7,5#457 >= -980
 R17_(j2o4b8l0)#1855:  s_2,4#24 - 980 x_2,8,5#148 - S_8,5#458 >= -980
 R17_(j2o4b9l0)#1856:  s_2,4#24 - 980 x_2,9,5#149 - S_9,5#459 >= -980
 R17_(j3o0b0l0)#1857:  s_3,0#25 - 980 x_3,0,4#150 - S_0,4#430 >= -980
 R17_(j3o0b1l0)#1858:  s_3,0#25 - 980 x_3,1,4#151 - S_1,4#431 >= -980
 R17_(j3o0b2l0)#1859:  s_3,0#25 - 980 x_3,2,4#152 - S_2,4#432 >= -980
 R17_(j3o0b3l0)#1860:  s_3,0#25 - 980 x_3,3,4#153 - S_3,4#433 >= -980
 R17_(j3o0b4l0)#1861:  s_3,0#25 - 980 x_3,4,4#154 - S_4,4#434 >= -980
 R17_(j3o0b5l0)#1862:  s_3,0#25 - 980 x_3,5,4#155 - S_5,4#435 >= -980
 R17_(j3o0b6l0)#1863:  s_3,0#25 - 980 x_3,6,4#156 - S_6,4#436 >= -980
 R17_(j3o0b7l0)#1864:  s_3,0#25 - 980 x_3,7,4#157 - S_7,4#437 >= -980
 R17_(j3o0b8l0)#1865:  s_3,0#25 - 980 x_3,8,4#158 - S_8,4#438 >= -980
 R17_(j3o0b9l0)#1866:  s_3,0#25 - 980 x_3,9,4#159 - S_9,4#439 >= -980
 R17_(j3o1b0l0)#1867:  s_3,1#26 - 980 x_3,0,3#160 - S_0,3#440 >= -980
 R17_(j3o1b1l0)#1868:  s_3,1#26 - 980 x_3,1,3#161 - S_1,3#441 >= -980
 R17_(j3o1b2l0)#1869:  s_3,1#26 - 980 x_3,2,3#162 - S_2,3#442 >= -980
 R17_(j3o1b3l0)#1870:  s_3,1#26 - 980 x_3,3,3#163 - S_3,3#443 >= -980
 R17_(j3o1b4l0)#1871:  s_3,1#26 - 980 x_3,4,3#164 - S_4,3#444 >= -980
 R17_(j3o1b5l0)#1872:  s_3,1#26 - 980 x_3,5,3#165 - S_5,3#445 >= -980
 R17_(j3o1b6l0)#1873:  s_3,1#26 - 980 x_3,6,3#166 - S_6,3#446 >= -980
 R17_(j3o1b7l0)#1874:  s_3,1#26 - 980 x_3,7,3#167 - S_7,3#447 >= -980
 R17_(j3o1b8l0)#1875:  s_3,1#26 - 980 x_3,8,3#168 - S_8,3#448 >= -980
 R17_(j3o1b9l0)#1876:  s_3,1#26 - 980 x_3,9,3#169 - S_9,3#449 >= -980
 R17_(j3o4b0l0)#1877:  s_3,4#29 - 980 x_3,0,5#170 - S_0,5#450 >= -980
 R17_(j3o4b1l0)#1878:  s_3,4#29 - 980 x_3,1,5#171 - S_1,5#451 >= -980
 R17_(j3o4b2l0)#1879:  s_3,4#29 - 980 x_3,2,5#172 - S_2,5#452 >= -980
 R17_(j3o4b3l0)#1880:  s_3,4#29 - 980 x_3,3,5#173 - S_3,5#453 >= -980
 R17_(j3o4b4l0)#1881:  s_3,4#29 - 980 x_3,4,5#174 - S_4,5#454 >= -980
 R17_(j3o4b5l0)#1882:  s_3,4#29 - 980 x_3,5,5#175 - S_5,5#455 >= -980
 R17_(j3o4b6l0)#1883:  s_3,4#29 - 980 x_3,6,5#176 - S_6,5#456 >= -980
 R17_(j3o4b7l0)#1884:  s_3,4#29 - 980 x_3,7,5#177 - S_7,5#457 >= -980
 R17_(j3o4b8l0)#1885:  s_3,4#29 - 980 x_3,8,5#178 - S_8,5#458 >= -980
 R17_(j3o4b9l0)#1886:  s_3,4#29 - 980 x_3,9,5#179 - S_9,5#459 >= -980
 R17_(j4o0b0l0)#1887:  s_4,0#30 - 980 x_4,0,4#180 - S_0,4#430 >= -980
 R17_(j4o0b1l0)#1888:  s_4,0#30 - 980 x_4,1,4#181 - S_1,4#431 >= -980
 R17_(j4o0b2l0)#1889:  s_4,0#30 - 980 x_4,2,4#182 - S_2,4#432 >= -980
 R17_(j4o0b3l0)#1890:  s_4,0#30 - 980 x_4,3,4#183 - S_3,4#433 >= -980
 R17_(j4o0b4l0)#1891:  s_4,0#30 - 980 x_4,4,4#184 - S_4,4#434 >= -980
 R17_(j4o0b5l0)#1892:  s_4,0#30 - 980 x_4,5,4#185 - S_5,4#435 >= -980
 R17_(j4o0b6l0)#1893:  s_4,0#30 - 980 x_4,6,4#186 - S_6,4#436 >= -980
 R17_(j4o0b7l0)#1894:  s_4,0#30 - 980 x_4,7,4#187 - S_7,4#437 >= -980
 R17_(j4o0b8l0)#1895:  s_4,0#30 - 980 x_4,8,4#188 - S_8,4#438 >= -980
 R17_(j4o0b9l0)#1896:  s_4,0#30 - 980 x_4,9,4#189 - S_9,4#439 >= -980
 R17_(j4o1b0l0)#1897:  s_4,1#31 - 980 x_4,0,3#190 - S_0,3#440 >= -980
 R17_(j4o1b1l0)#1898:  s_4,1#31 - 980 x_4,1,3#191 - S_1,3#441 >= -980
 R17_(j4o1b2l0)#1899:  s_4,1#31 - 980 x_4,2,3#192 - S_2,3#442 >= -980
 R17_(j4o1b3l0)#1900:  s_4,1#31 - 980 x_4,3,3#193 - S_3,3#443 >= -980
 R17_(j4o1b4l0)#1901:  s_4,1#31 - 980 x_4,4,3#194 - S_4,3#444 >= -980
 R17_(j4o1b5l0)#1902:  s_4,1#31 - 980 x_4,5,3#195 - S_5,3#445 >= -980
 R17_(j4o1b6l0)#1903:  s_4,1#31 - 980 x_4,6,3#196 - S_6,3#446 >= -980
 R17_(j4o1b7l0)#1904:  s_4,1#31 - 980 x_4,7,3#197 - S_7,3#447 >= -980
 R17_(j4o1b8l0)#1905:  s_4,1#31 - 980 x_4,8,3#198 - S_8,3#448 >= -980
 R17_(j4o1b9l0)#1906:  s_4,1#31 - 980 x_4,9,3#199 - S_9,3#449 >= -980
 R17_(j4o4b0l0)#1907:  s_4,4#34 - 980 x_4,0,5#200 - S_0,5#450 >= -980
 R17_(j4o4b1l0)#1908:  s_4,4#34 - 980 x_4,1,5#201 - S_1,5#451 >= -980
 R17_(j4o4b2l0)#1909:  s_4,4#34 - 980 x_4,2,5#202 - S_2,5#452 >= -980
 R17_(j4o4b3l0)#1910:  s_4,4#34 - 980 x_4,3,5#203 - S_3,5#453 >= -980
 R17_(j4o4b4l0)#1911:  s_4,4#34 - 980 x_4,4,5#204 - S_4,5#454 >= -980
 R17_(j4o4b5l0)#1912:  s_4,4#34 - 980 x_4,5,5#205 - S_5,5#455 >= -980
 R17_(j4o4b6l0)#1913:  s_4,4#34 - 980 x_4,6,5#206 - S_6,5#456 >= -980
 R17_(j4o4b7l0)#1914:  s_4,4#34 - 980 x_4,7,5#207 - S_7,5#457 >= -980
 R17_(j4o4b8l0)#1915:  s_4,4#34 - 980 x_4,8,5#208 - S_8,5#458 >= -980
 R17_(j4o4b9l0)#1916:  s_4,4#34 - 980 x_4,9,5#209 - S_9,5#459 >= -980
 R17_(j5o0b0l0)#1917:  s_5,0#35 - 980 x_5,0,4#210 - S_0,4#430 >= -980
 R17_(j5o0b1l0)#1918:  s_5,0#35 - 980 x_5,1,4#211 - S_1,4#431 >= -980
 R17_(j5o0b2l0)#1919:  s_5,0#35 - 980 x_5,2,4#212 - S_2,4#432 >= -980
 R17_(j5o0b3l0)#1920:  s_5,0#35 - 980 x_5,3,4#213 - S_3,4#433 >= -980
 R17_(j5o0b4l0)#1921:  s_5,0#35 - 980 x_5,4,4#214 - S_4,4#434 >= -980
 R17_(j5o0b5l0)#1922:  s_5,0#35 - 980 x_5,5,4#215 - S_5,4#435 >= -980
 R17_(j5o0b6l0)#1923:  s_5,0#35 - 980 x_5,6,4#216 - S_6,4#436 >= -980
 R17_(j5o0b7l0)#1924:  s_5,0#35 - 980 x_5,7,4#217 - S_7,4#437 >= -980
 R17_(j5o0b8l0)#1925:  s_5,0#35 - 980 x_5,8,4#218 - S_8,4#438 >= -980
 R17_(j5o0b9l0)#1926:  s_5,0#35 - 980 x_5,9,4#219 - S_9,4#439 >= -980
 R17_(j5o1b0l0)#1927:  s_5,1#36 - 980 x_5,0,3#220 - S_0,3#440 >= -980
 R17_(j5o1b1l0)#1928:  s_5,1#36 - 980 x_5,1,3#221 - S_1,3#441 >= -980
 R17_(j5o1b2l0)#1929:  s_5,1#36 - 980 x_5,2,3#222 - S_2,3#442 >= -980
 R17_(j5o1b3l0)#1930:  s_5,1#36 - 980 x_5,3,3#223 - S_3,3#443 >= -980
 R17_(j5o1b4l0)#1931:  s_5,1#36 - 980 x_5,4,3#224 - S_4,3#444 >= -980
 R17_(j5o1b5l0)#1932:  s_5,1#36 - 980 x_5,5,3#225 - S_5,3#445 >= -980
 R17_(j5o1b6l0)#1933:  s_5,1#36 - 980 x_5,6,3#226 - S_6,3#446 >= -980
 R17_(j5o1b7l0)#1934:  s_5,1#36 - 980 x_5,7,3#227 - S_7,3#447 >= -980
 R17_(j5o1b8l0)#1935:  s_5,1#36 - 980 x_5,8,3#228 - S_8,3#448 >= -980
 R17_(j5o1b9l0)#1936:  s_5,1#36 - 980 x_5,9,3#229 - S_9,3#449 >= -980
 R17_(j5o4b0l0)#1937:  s_5,4#39 - 980 x_5,0,5#230 - S_0,5#450 >= -980
 R17_(j5o4b1l0)#1938:  s_5,4#39 - 980 x_5,1,5#231 - S_1,5#451 >= -980
 R17_(j5o4b2l0)#1939:  s_5,4#39 - 980 x_5,2,5#232 - S_2,5#452 >= -980
 R17_(j5o4b3l0)#1940:  s_5,4#39 - 980 x_5,3,5#233 - S_3,5#453 >= -980
 R17_(j5o4b4l0)#1941:  s_5,4#39 - 980 x_5,4,5#234 - S_4,5#454 >= -980
 R17_(j5o4b5l0)#1942:  s_5,4#39 - 980 x_5,5,5#235 - S_5,5#455 >= -980
 R17_(j5o4b6l0)#1943:  s_5,4#39 - 980 x_5,6,5#236 - S_6,5#456 >= -980
 R17_(j5o4b7l0)#1944:  s_5,4#39 - 980 x_5,7,5#237 - S_7,5#457 >= -980
 R17_(j5o4b8l0)#1945:  s_5,4#39 - 980 x_5,8,5#238 - S_8,5#458 >= -980
 R17_(j5o4b9l0)#1946:  s_5,4#39 - 980 x_5,9,5#239 - S_9,5#459 >= -980
 R17_(j6o0b0l0)#1947:  s_6,0#40 - 980 x_6,0,4#240 - S_0,4#430 >= -980
 R17_(j6o0b1l0)#1948:  s_6,0#40 - 980 x_6,1,4#241 - S_1,4#431 >= -980
 R17_(j6o0b2l0)#1949:  s_6,0#40 - 980 x_6,2,4#242 - S_2,4#432 >= -980
 R17_(j6o0b3l0)#1950:  s_6,0#40 - 980 x_6,3,4#243 - S_3,4#433 >= -980
 R17_(j6o0b4l0)#1951:  s_6,0#40 - 980 x_6,4,4#244 - S_4,4#434 >= -980
 R17_(j6o0b5l0)#1952:  s_6,0#40 - 980 x_6,5,4#245 - S_5,4#435 >= -980
 R17_(j6o0b6l0)#1953:  s_6,0#40 - 980 x_6,6,4#246 - S_6,4#436 >= -980
 R17_(j6o0b7l0)#1954:  s_6,0#40 - 980 x_6,7,4#247 - S_7,4#437 >= -980
 R17_(j6o0b8l0)#1955:  s_6,0#40 - 980 x_6,8,4#248 - S_8,4#438 >= -980
 R17_(j6o0b9l0)#1956:  s_6,0#40 - 980 x_6,9,4#249 - S_9,4#439 >= -980
 R17_(j6o1b0l0)#1957:  s_6,1#41 - 980 x_6,0,3#250 - S_0,3#440 >= -980
 R17_(j6o1b1l0)#1958:  s_6,1#41 - 980 x_6,1,3#251 - S_1,3#441 >= -980
 R17_(j6o1b2l0)#1959:  s_6,1#41 - 980 x_6,2,3#252 - S_2,3#442 >= -980
 R17_(j6o1b3l0)#1960:  s_6,1#41 - 980 x_6,3,3#253 - S_3,3#443 >= -980
 R17_(j6o1b4l0)#1961:  s_6,1#41 - 980 x_6,4,3#254 - S_4,3#444 >= -980
 R17_(j6o1b5l0)#1962:  s_6,1#41 - 980 x_6,5,3#255 - S_5,3#445 >= -980
 R17_(j6o1b6l0)#1963:  s_6,1#41 - 980 x_6,6,3#256 - S_6,3#446 >= -980
 R17_(j6o1b7l0)#1964:  s_6,1#41 - 980 x_6,7,3#257 - S_7,3#447 >= -980
 R17_(j6o1b8l0)#1965:  s_6,1#41 - 980 x_6,8,3#258 - S_8,3#448 >= -980
 R17_(j6o1b9l0)#1966:  s_6,1#41 - 980 x_6,9,3#259 - S_9,3#449 >= -980
 R17_(j6o4b0l0)#1967:  s_6,4#44 - 980 x_6,0,5#260 - S_0,5#450 >= -980
 R17_(j6o4b1l0)#1968:  s_6,4#44 - 980 x_6,1,5#261 - S_1,5#451 >= -980
 R17_(j6o4b2l0)#1969:  s_6,4#44 - 980 x_6,2,5#262 - S_2,5#452 >= -980
 R17_(j6o4b3l0)#1970:  s_6,4#44 - 980 x_6,3,5#263 - S_3,5#453 >= -980
 R17_(j6o4b4l0)#1971:  s_6,4#44 - 980 x_6,4,5#264 - S_4,5#454 >= -980
 R17_(j6o4b5l0)#1972:  s_6,4#44 - 980 x_6,5,5#265 - S_5,5#455 >= -980
 R17_(j6o4b6l0)#1973:  s_6,4#44 - 980 x_6,6,5#266 - S_6,5#456 >= -980
 R17_(j6o4b7l0)#1974:  s_6,4#44 - 980 x_6,7,5#267 - S_7,5#457 >= -980
 R17_(j6o4b8l0)#1975:  s_6,4#44 - 980 x_6,8,5#268 - S_8,5#458 >= -980
 R17_(j6o4b9l0)#1976:  s_6,4#44 - 980 x_6,9,5#269 - S_9,5#459 >= -980
 R17_(j7o0b0l0)#1977:  s_7,0#45 - 980 x_7,0,4#270 - S_0,4#430 >= -980
 R17_(j7o0b1l0)#1978:  s_7,0#45 - 980 x_7,1,4#271 - S_1,4#431 >= -980
 R17_(j7o0b2l0)#1979:  s_7,0#45 - 980 x_7,2,4#272 - S_2,4#432 >= -980
 R17_(j7o0b3l0)#1980:  s_7,0#45 - 980 x_7,3,4#273 - S_3,4#433 >= -980
 R17_(j7o0b4l0)#1981:  s_7,0#45 - 980 x_7,4,4#274 - S_4,4#434 >= -980
 R17_(j7o0b5l0)#1982:  s_7,0#45 - 980 x_7,5,4#275 - S_5,4#435 >= -980
 R17_(j7o0b6l0)#1983:  s_7,0#45 - 980 x_7,6,4#276 - S_6,4#436 >= -980
 R17_(j7o0b7l0)#1984:  s_7,0#45 - 980 x_7,7,4#277 - S_7,4#437 >= -980
 R17_(j7o0b8l0)#1985:  s_7,0#45 - 980 x_7,8,4#278 - S_8,4#438 >= -980
 R17_(j7o0b9l0)#1986:  s_7,0#45 - 980 x_7,9,4#279 - S_9,4#439 >= -980
 R17_(j7o1b0l0)#1987:  s_7,1#46 - 980 x_7,0,3#280 - S_0,3#440 >= -980
 R17_(j7o1b1l0)#1988:  s_7,1#46 - 980 x_7,1,3#281 - S_1,3#441 >= -980
 R17_(j7o1b2l0)#1989:  s_7,1#46 - 980 x_7,2,3#282 - S_2,3#442 >= -980
 R17_(j7o1b3l0)#1990:  s_7,1#46 - 980 x_7,3,3#283 - S_3,3#443 >= -980
 R17_(j7o1b4l0)#1991:  s_7,1#46 - 980 x_7,4,3#284 - S_4,3#444 >= -980
 R17_(j7o1b5l0)#1992:  s_7,1#46 - 980 x_7,5,3#285 - S_5,3#445 >= -980
 R17_(j7o1b6l0)#1993:  s_7,1#46 - 980 x_7,6,3#286 - S_6,3#446 >= -980
 R17_(j7o1b7l0)#1994:  s_7,1#46 - 980 x_7,7,3#287 - S_7,3#447 >= -980
 R17_(j7o1b8l0)#1995:  s_7,1#46 - 980 x_7,8,3#288 - S_8,3#448 >= -980
 R17_(j7o1b9l0)#1996:  s_7,1#46 - 980 x_7,9,3#289 - S_9,3#449 >= -980
 R17_(j7o4b0l0)#1997:  s_7,4#49 - 980 x_7,0,5#290 - S_0,5#450 >= -980
 R17_(j7o4b1l0)#1998:  s_7,4#49 - 980 x_7,1,5#291 - S_1,5#451 >= -980
 R17_(j7o4b2l0)#1999:  s_7,4#49 - 980 x_7,2,5#292 - S_2,5#452 >= -980
 R17_(j7o4b3l0)#2000:  s_7,4#49 - 980 x_7,3,5#293 - S_3,5#453 >= -980
 R17_(j7o4b4l0)#2001:  s_7,4#49 - 980 x_7,4,5#294 - S_4,5#454 >= -980
 R17_(j7o4b5l0)#2002:  s_7,4#49 - 980 x_7,5,5#295 - S_5,5#455 >= -980
 R17_(j7o4b6l0)#2003:  s_7,4#49 - 980 x_7,6,5#296 - S_6,5#456 >= -980
 R17_(j7o4b7l0)#2004:  s_7,4#49 - 980 x_7,7,5#297 - S_7,5#457 >= -980
 R17_(j7o4b8l0)#2005:  s_7,4#49 - 980 x_7,8,5#298 - S_8,5#458 >= -980
 R17_(j7o4b9l0)#2006:  s_7,4#49 - 980 x_7,9,5#299 - S_9,5#459 >= -980
 R17_(j8o0b0l0)#2007:  s_8,0#50 - 980 x_8,0,4#300 - S_0,4#430 >= -980
 R17_(j8o0b1l0)#2008:  s_8,0#50 - 980 x_8,1,4#301 - S_1,4#431 >= -980
 R17_(j8o0b2l0)#2009:  s_8,0#50 - 980 x_8,2,4#302 - S_2,4#432 >= -980
 R17_(j8o0b3l0)#2010:  s_8,0#50 - 980 x_8,3,4#303 - S_3,4#433 >= -980
 R17_(j8o0b4l0)#2011:  s_8,0#50 - 980 x_8,4,4#304 - S_4,4#434 >= -980
 R17_(j8o0b5l0)#2012:  s_8,0#50 - 980 x_8,5,4#305 - S_5,4#435 >= -980
 R17_(j8o0b6l0)#2013:  s_8,0#50 - 980 x_8,6,4#306 - S_6,4#436 >= -980
 R17_(j8o0b7l0)#2014:  s_8,0#50 - 980 x_8,7,4#307 - S_7,4#437 >= -980
 R17_(j8o0b8l0)#2015:  s_8,0#50 - 980 x_8,8,4#308 - S_8,4#438 >= -980
 R17_(j8o0b9l0)#2016:  s_8,0#50 - 980 x_8,9,4#309 - S_9,4#439 >= -980
 R17_(j8o1b0l0)#2017:  s_8,1#51 - 980 x_8,0,3#310 - S_0,3#440 >= -980
 R17_(j8o1b1l0)#2018:  s_8,1#51 - 980 x_8,1,3#311 - S_1,3#441 >= -980
 R17_(j8o1b2l0)#2019:  s_8,1#51 - 980 x_8,2,3#312 - S_2,3#442 >= -980
 R17_(j8o1b3l0)#2020:  s_8,1#51 - 980 x_8,3,3#313 - S_3,3#443 >= -980
 R17_(j8o1b4l0)#2021:  s_8,1#51 - 980 x_8,4,3#314 - S_4,3#444 >= -980
 R17_(j8o1b5l0)#2022:  s_8,1#51 - 980 x_8,5,3#315 - S_5,3#445 >= -980
 R17_(j8o1b6l0)#2023:  s_8,1#51 - 980 x_8,6,3#316 - S_6,3#446 >= -980
 R17_(j8o1b7l0)#2024:  s_8,1#51 - 980 x_8,7,3#317 - S_7,3#447 >= -980
 R17_(j8o1b8l0)#2025:  s_8,1#51 - 980 x_8,8,3#318 - S_8,3#448 >= -980
 R17_(j8o1b9l0)#2026:  s_8,1#51 - 980 x_8,9,3#319 - S_9,3#449 >= -980
 R17_(j8o4b0l0)#2027:  s_8,4#54 - 980 x_8,0,5#320 - S_0,5#450 >= -980
 R17_(j8o4b1l0)#2028:  s_8,4#54 - 980 x_8,1,5#321 - S_1,5#451 >= -980
 R17_(j8o4b2l0)#2029:  s_8,4#54 - 980 x_8,2,5#322 - S_2,5#452 >= -980
 R17_(j8o4b3l0)#2030:  s_8,4#54 - 980 x_8,3,5#323 - S_3,5#453 >= -980
 R17_(j8o4b4l0)#2031:  s_8,4#54 - 980 x_8,4,5#324 - S_4,5#454 >= -980
 R17_(j8o4b5l0)#2032:  s_8,4#54 - 980 x_8,5,5#325 - S_5,5#455 >= -980
 R17_(j8o4b6l0)#2033:  s_8,4#54 - 980 x_8,6,5#326 - S_6,5#456 >= -980
 R17_(j8o4b7l0)#2034:  s_8,4#54 - 980 x_8,7,5#327 - S_7,5#457 >= -980
 R17_(j8o4b8l0)#2035:  s_8,4#54 - 980 x_8,8,5#328 - S_8,5#458 >= -980
 R17_(j8o4b9l0)#2036:  s_8,4#54 - 980 x_8,9,5#329 - S_9,5#459 >= -980
 R17_(j9o0b0l0)#2037:  s_9,0#55 - 980 x_9,0,4#330 - S_0,4#430 >= -980
 R17_(j9o0b1l0)#2038:  s_9,0#55 - 980 x_9,1,4#331 - S_1,4#431 >= -980
 R17_(j9o0b2l0)#2039:  s_9,0#55 - 980 x_9,2,4#332 - S_2,4#432 >= -980
 R17_(j9o0b3l0)#2040:  s_9,0#55 - 980 x_9,3,4#333 - S_3,4#433 >= -980
 R17_(j9o0b4l0)#2041:  s_9,0#55 - 980 x_9,4,4#334 - S_4,4#434 >= -980
 R17_(j9o0b5l0)#2042:  s_9,0#55 - 980 x_9,5,4#335 - S_5,4#435 >= -980
 R17_(j9o0b6l0)#2043:  s_9,0#55 - 980 x_9,6,4#336 - S_6,4#436 >= -980
 R17_(j9o0b7l0)#2044:  s_9,0#55 - 980 x_9,7,4#337 - S_7,4#437 >= -980
 R17_(j9o0b8l0)#2045:  s_9,0#55 - 980 x_9,8,4#338 - S_8,4#438 >= -980
 R17_(j9o0b9l0)#2046:  s_9,0#55 - 980 x_9,9,4#339 - S_9,4#439 >= -980
 R17_(j9o1b0l0)#2047:  s_9,1#56 - 980 x_9,0,3#340 - S_0,3#440 >= -980
 R17_(j9o1b1l0)#2048:  s_9,1#56 - 980 x_9,1,3#341 - S_1,3#441 >= -980
 R17_(j9o1b2l0)#2049:  s_9,1#56 - 980 x_9,2,3#342 - S_2,3#442 >= -980
 R17_(j9o1b3l0)#2050:  s_9,1#56 - 980 x_9,3,3#343 - S_3,3#443 >= -980
 R17_(j9o1b4l0)#2051:  s_9,1#56 - 980 x_9,4,3#344 - S_4,3#444 >= -980
 R17_(j9o1b5l0)#2052:  s_9,1#56 - 980 x_9,5,3#345 - S_5,3#445 >= -980
 R17_(j9o1b6l0)#2053:  s_9,1#56 - 980 x_9,6,3#346 - S_6,3#446 >= -980
 R17_(j9o1b7l0)#2054:  s_9,1#56 - 980 x_9,7,3#347 - S_7,3#447 >= -980
 R17_(j9o1b8l0)#2055:  s_9,1#56 - 980 x_9,8,3#348 - S_8,3#448 >= -980
 R17_(j9o1b9l0)#2056:  s_9,1#56 - 980 x_9,9,3#349 - S_9,3#449 >= -980
 R17_(j9o4b0l0)#2057:  s_9,4#59 - 980 x_9,0,5#350 - S_0,5#450 >= -980
 R17_(j9o4b1l0)#2058:  s_9,4#59 - 980 x_9,1,5#351 - S_1,5#451 >= -980
 R17_(j9o4b2l0)#2059:  s_9,4#59 - 980 x_9,2,5#352 - S_2,5#452 >= -980
 R17_(j9o4b3l0)#2060:  s_9,4#59 - 980 x_9,3,5#353 - S_3,5#453 >= -980
 R17_(j9o4b4l0)#2061:  s_9,4#59 - 980 x_9,4,5#354 - S_4,5#454 >= -980
 R17_(j9o4b5l0)#2062:  s_9,4#59 - 980 x_9,5,5#355 - S_5,5#455 >= -980
 R17_(j9o4b6l0)#2063:  s_9,4#59 - 980 x_9,6,5#356 - S_6,5#456 >= -980
 R17_(j9o4b7l0)#2064:  s_9,4#59 - 980 x_9,7,5#357 - S_7,5#457 >= -980
 R17_(j9o4b8l0)#2065:  s_9,4#59 - 980 x_9,8,5#358 - S_8,5#458 >= -980
 R17_(j9o4b9l0)#2066:  s_9,4#59 - 980 x_9,9,5#359 - S_9,5#459 >= -980
 R18_(j0o0b0l0)#2067:  s_0,0#10 + 980 x_0,0,4#60 - S_0,4#430 <= 980
 R18_(j0o0b1l0)#2068:  s_0,0#10 + 980 x_0,1,4#61 - S_1,4#431 <= 980
 R18_(j0o0b2l0)#2069:  s_0,0#10 + 980 x_0,2,4#62 - S_2,4#432 <= 980
 R18_(j0o0b3l0)#2070:  s_0,0#10 + 980 x_0,3,4#63 - S_3,4#433 <= 980
 R18_(j0o0b4l0)#2071:  s_0,0#10 + 980 x_0,4,4#64 - S_4,4#434 <= 980
 R18_(j0o0b5l0)#2072:  s_0,0#10 + 980 x_0,5,4#65 - S_5,4#435 <= 980
 R18_(j0o0b6l0)#2073:  s_0,0#10 + 980 x_0,6,4#66 - S_6,4#436 <= 980
 R18_(j0o0b7l0)#2074:  s_0,0#10 + 980 x_0,7,4#67 - S_7,4#437 <= 980
 R18_(j0o0b8l0)#2075:  s_0,0#10 + 980 x_0,8,4#68 - S_8,4#438 <= 980
 R18_(j0o0b9l0)#2076:  s_0,0#10 + 980 x_0,9,4#69 - S_9,4#439 <= 980
 R18_(j0o1b0l0)#2077:  s_0,1#11 + 980 x_0,0,3#70 - S_0,3#440 <= 980
 R18_(j0o1b1l0)#2078:  s_0,1#11 + 980 x_0,1,3#71 - S_1,3#441 <= 980
 R18_(j0o1b2l0)#2079:  s_0,1#11 + 980 x_0,2,3#72 - S_2,3#442 <= 980
 R18_(j0o1b3l0)#2080:  s_0,1#11 + 980 x_0,3,3#73 - S_3,3#443 <= 980
 R18_(j0o1b4l0)#2081:  s_0,1#11 + 980 x_0,4,3#74 - S_4,3#444 <= 980
 R18_(j0o1b5l0)#2082:  s_0,1#11 + 980 x_0,5,3#75 - S_5,3#445 <= 980
 R18_(j0o1b6l0)#2083:  s_0,1#11 + 980 x_0,6,3#76 - S_6,3#446 <= 980
 R18_(j0o1b7l0)#2084:  s_0,1#11 + 980 x_0,7,3#77 - S_7,3#447 <= 980
 R18_(j0o1b8l0)#2085:  s_0,1#11 + 980 x_0,8,3#78 - S_8,3#448 <= 980
 R18_(j0o1b9l0)#2086:  s_0,1#11 + 980 x_0,9,3#79 - S_9,3#449 <= 980
 R18_(j0o4b0l0)#2087:  s_0,4#14 + 980 x_0,0,5#80 - S_0,5#450 <= 980
 R18_(j0o4b1l0)#2088:  s_0,4#14 + 980 x_0,1,5#81 - S_1,5#451 <= 980
 R18_(j0o4b2l0)#2089:  s_0,4#14 + 980 x_0,2,5#82 - S_2,5#452 <= 980
 R18_(j0o4b3l0)#2090:  s_0,4#14 + 980 x_0,3,5#83 - S_3,5#453 <= 980
 R18_(j0o4b4l0)#2091:  s_0,4#14 + 980 x_0,4,5#84 - S_4,5#454 <= 980
 R18_(j0o4b5l0)#2092:  s_0,4#14 + 980 x_0,5,5#85 - S_5,5#455 <= 980
 R18_(j0o4b6l0)#2093:  s_0,4#14 + 980 x_0,6,5#86 - S_6,5#456 <= 980
 R18_(j0o4b7l0)#2094:  s_0,4#14 + 980 x_0,7,5#87 - S_7,5#457 <= 980
 R18_(j0o4b8l0)#2095:  s_0,4#14 + 980 x_0,8,5#88 - S_8,5#458 <= 980
 R18_(j0o4b9l0)#2096:  s_0,4#14 + 980 x_0,9,5#89 - S_9,5#459 <= 980
 R18_(j1o0b0l0)#2097:  s_1,0#15 + 980 x_1,0,4#90 - S_0,4#430 <= 980
 R18_(j1o0b1l0)#2098:  s_1,0#15 + 980 x_1,1,4#91 - S_1,4#431 <= 980
 R18_(j1o0b2l0)#2099:  s_1,0#15 + 980 x_1,2,4#92 - S_2,4#432 <= 980
 R18_(j1o0b3l0)#2100:  s_1,0#15 + 980 x_1,3,4#93 - S_3,4#433 <= 980
 R18_(j1o0b4l0)#2101:  s_1,0#15 + 980 x_1,4,4#94 - S_4,4#434 <= 980
 R18_(j1o0b5l0)#2102:  s_1,0#15 + 980 x_1,5,4#95 - S_5,4#435 <= 980
 R18_(j1o0b6l0)#2103:  s_1,0#15 + 980 x_1,6,4#96 - S_6,4#436 <= 980
 R18_(j1o0b7l0)#2104:  s_1,0#15 + 980 x_1,7,4#97 - S_7,4#437 <= 980
 R18_(j1o0b8l0)#2105:  s_1,0#15 + 980 x_1,8,4#98 - S_8,4#438 <= 980
 R18_(j1o0b9l0)#2106:  s_1,0#15 + 980 x_1,9,4#99 - S_9,4#439 <= 980
 R18_(j1o1b0l0)#2107:  s_1,1#16 + 980 x_1,0,3#100 - S_0,3#440 <= 980
 R18_(j1o1b1l0)#2108:  s_1,1#16 + 980 x_1,1,3#101 - S_1,3#441 <= 980
 R18_(j1o1b2l0)#2109:  s_1,1#16 + 980 x_1,2,3#102 - S_2,3#442 <= 980
 R18_(j1o1b3l0)#2110:  s_1,1#16 + 980 x_1,3,3#103 - S_3,3#443 <= 980
 R18_(j1o1b4l0)#2111:  s_1,1#16 + 980 x_1,4,3#104 - S_4,3#444 <= 980
 R18_(j1o1b5l0)#2112:  s_1,1#16 + 980 x_1,5,3#105 - S_5,3#445 <= 980
 R18_(j1o1b6l0)#2113:  s_1,1#16 + 980 x_1,6,3#106 - S_6,3#446 <= 980
 R18_(j1o1b7l0)#2114:  s_1,1#16 + 980 x_1,7,3#107 - S_7,3#447 <= 980
 R18_(j1o1b8l0)#2115:  s_1,1#16 + 980 x_1,8,3#108 - S_8,3#448 <= 980
 R18_(j1o1b9l0)#2116:  s_1,1#16 + 980 x_1,9,3#109 - S_9,3#449 <= 980
 R18_(j1o4b0l0)#2117:  s_1,4#19 + 980 x_1,0,5#110 - S_0,5#450 <= 980
 R18_(j1o4b1l0)#2118:  s_1,4#19 + 980 x_1,1,5#111 - S_1,5#451 <= 980
 R18_(j1o4b2l0)#2119:  s_1,4#19 + 980 x_1,2,5#112 - S_2,5#452 <= 980
 R18_(j1o4b3l0)#2120:  s_1,4#19 + 980 x_1,3,5#113 - S_3,5#453 <= 980
 R18_(j1o4b4l0)#2121:  s_1,4#19 + 980 x_1,4,5#114 - S_4,5#454 <= 980
 R18_(j1o4b5l0)#2122:  s_1,4#19 + 980 x_1,5,5#115 - S_5,5#455 <= 980
 R18_(j1o4b6l0)#2123:  s_1,4#19 + 980 x_1,6,5#116 - S_6,5#456 <= 980
 R18_(j1o4b7l0)#2124:  s_1,4#19 + 980 x_1,7,5#117 - S_7,5#457 <= 980
 R18_(j1o4b8l0)#2125:  s_1,4#19 + 980 x_1,8,5#118 - S_8,5#458 <= 980
 R18_(j1o4b9l0)#2126:  s_1,4#19 + 980 x_1,9,5#119 - S_9,5#459 <= 980
 R18_(j2o0b0l0)#2127:  s_2,0#20 + 980 x_2,0,4#120 - S_0,4#430 <= 980
 R18_(j2o0b1l0)#2128:  s_2,0#20 + 980 x_2,1,4#121 - S_1,4#431 <= 980
 R18_(j2o0b2l0)#2129:  s_2,0#20 + 980 x_2,2,4#122 - S_2,4#432 <= 980
 R18_(j2o0b3l0)#2130:  s_2,0#20 + 980 x_2,3,4#123 - S_3,4#433 <= 980
 R18_(j2o0b4l0)#2131:  s_2,0#20 + 980 x_2,4,4#124 - S_4,4#434 <= 980
 R18_(j2o0b5l0)#2132:  s_2,0#20 + 980 x_2,5,4#125 - S_5,4#435 <= 980
 R18_(j2o0b6l0)#2133:  s_2,0#20 + 980 x_2,6,4#126 - S_6,4#436 <= 980
 R18_(j2o0b7l0)#2134:  s_2,0#20 + 980 x_2,7,4#127 - S_7,4#437 <= 980
 R18_(j2o0b8l0)#2135:  s_2,0#20 + 980 x_2,8,4#128 - S_8,4#438 <= 980
 R18_(j2o0b9l0)#2136:  s_2,0#20 + 980 x_2,9,4#129 - S_9,4#439 <= 980
 R18_(j2o1b0l0)#2137:  s_2,1#21 + 980 x_2,0,3#130 - S_0,3#440 <= 980
 R18_(j2o1b1l0)#2138:  s_2,1#21 + 980 x_2,1,3#131 - S_1,3#441 <= 980
 R18_(j2o1b2l0)#2139:  s_2,1#21 + 980 x_2,2,3#132 - S_2,3#442 <= 980
 R18_(j2o1b3l0)#2140:  s_2,1#21 + 980 x_2,3,3#133 - S_3,3#443 <= 980
 R18_(j2o1b4l0)#2141:  s_2,1#21 + 980 x_2,4,3#134 - S_4,3#444 <= 980
 R18_(j2o1b5l0)#2142:  s_2,1#21 + 980 x_2,5,3#135 - S_5,3#445 <= 980
 R18_(j2o1b6l0)#2143:  s_2,1#21 + 980 x_2,6,3#136 - S_6,3#446 <= 980
 R18_(j2o1b7l0)#2144:  s_2,1#21 + 980 x_2,7,3#137 - S_7,3#447 <= 980
 R18_(j2o1b8l0)#2145:  s_2,1#21 + 980 x_2,8,3#138 - S_8,3#448 <= 980
 R18_(j2o1b9l0)#2146:  s_2,1#21 + 980 x_2,9,3#139 - S_9,3#449 <= 980
 R18_(j2o4b0l0)#2147:  s_2,4#24 + 980 x_2,0,5#140 - S_0,5#450 <= 980
 R18_(j2o4b1l0)#2148:  s_2,4#24 + 980 x_2,1,5#141 - S_1,5#451 <= 980
 R18_(j2o4b2l0)#2149:  s_2,4#24 + 980 x_2,2,5#142 - S_2,5#452 <= 980
 R18_(j2o4b3l0)#2150:  s_2,4#24 + 980 x_2,3,5#143 - S_3,5#453 <= 980
 R18_(j2o4b4l0)#2151:  s_2,4#24 + 980 x_2,4,5#144 - S_4,5#454 <= 980
 R18_(j2o4b5l0)#2152:  s_2,4#24 + 980 x_2,5,5#145 - S_5,5#455 <= 980
 R18_(j2o4b6l0)#2153:  s_2,4#24 + 980 x_2,6,5#146 - S_6,5#456 <= 980
 R18_(j2o4b7l0)#2154:  s_2,4#24 + 980 x_2,7,5#147 - S_7,5#457 <= 980
 R18_(j2o4b8l0)#2155:  s_2,4#24 + 980 x_2,8,5#148 - S_8,5#458 <= 980
 R18_(j2o4b9l0)#2156:  s_2,4#24 + 980 x_2,9,5#149 - S_9,5#459 <= 980
 R18_(j3o0b0l0)#2157:  s_3,0#25 + 980 x_3,0,4#150 - S_0,4#430 <= 980
 R18_(j3o0b1l0)#2158:  s_3,0#25 + 980 x_3,1,4#151 - S_1,4#431 <= 980
 R18_(j3o0b2l0)#2159:  s_3,0#25 + 980 x_3,2,4#152 - S_2,4#432 <= 980
 R18_(j3o0b3l0)#2160:  s_3,0#25 + 980 x_3,3,4#153 - S_3,4#433 <= 980
 R18_(j3o0b4l0)#2161:  s_3,0#25 + 980 x_3,4,4#154 - S_4,4#434 <= 980
 R18_(j3o0b5l0)#2162:  s_3,0#25 + 980 x_3,5,4#155 - S_5,4#435 <= 980
 R18_(j3o0b6l0)#2163:  s_3,0#25 + 980 x_3,6,4#156 - S_6,4#436 <= 980
 R18_(j3o0b7l0)#2164:  s_3,0#25 + 980 x_3,7,4#157 - S_7,4#437 <= 980
 R18_(j3o0b8l0)#2165:  s_3,0#25 + 980 x_3,8,4#158 - S_8,4#438 <= 980
 R18_(j3o0b9l0)#2166:  s_3,0#25 + 980 x_3,9,4#159 - S_9,4#439 <= 980
 R18_(j3o1b0l0)#2167:  s_3,1#26 + 980 x_3,0,3#160 - S_0,3#440 <= 980
 R18_(j3o1b1l0)#2168:  s_3,1#26 + 980 x_3,1,3#161 - S_1,3#441 <= 980
 R18_(j3o1b2l0)#2169:  s_3,1#26 + 980 x_3,2,3#162 - S_2,3#442 <= 980
 R18_(j3o1b3l0)#2170:  s_3,1#26 + 980 x_3,3,3#163 - S_3,3#443 <= 980
 R18_(j3o1b4l0)#2171:  s_3,1#26 + 980 x_3,4,3#164 - S_4,3#444 <= 980
 R18_(j3o1b5l0)#2172:  s_3,1#26 + 980 x_3,5,3#165 - S_5,3#445 <= 980
 R18_(j3o1b6l0)#2173:  s_3,1#26 + 980 x_3,6,3#166 - S_6,3#446 <= 980
 R18_(j3o1b7l0)#2174:  s_3,1#26 + 980 x_3,7,3#167 - S_7,3#447 <= 980
 R18_(j3o1b8l0)#2175:  s_3,1#26 + 980 x_3,8,3#168 - S_8,3#448 <= 980
 R18_(j3o1b9l0)#2176:  s_3,1#26 + 980 x_3,9,3#169 - S_9,3#449 <= 980
 R18_(j3o4b0l0)#2177:  s_3,4#29 + 980 x_3,0,5#170 - S_0,5#450 <= 980
 R18_(j3o4b1l0)#2178:  s_3,4#29 + 980 x_3,1,5#171 - S_1,5#451 <= 980
 R18_(j3o4b2l0)#2179:  s_3,4#29 + 980 x_3,2,5#172 - S_2,5#452 <= 980
 R18_(j3o4b3l0)#2180:  s_3,4#29 + 980 x_3,3,5#173 - S_3,5#453 <= 980
 R18_(j3o4b4l0)#2181:  s_3,4#29 + 980 x_3,4,5#174 - S_4,5#454 <= 980
 R18_(j3o4b5l0)#2182:  s_3,4#29 + 980 x_3,5,5#175 - S_5,5#455 <= 980
 R18_(j3o4b6l0)#2183:  s_3,4#29 + 980 x_3,6,5#176 - S_6,5#456 <= 980
 R18_(j3o4b7l0)#2184:  s_3,4#29 + 980 x_3,7,5#177 - S_7,5#457 <= 980
 R18_(j3o4b8l0)#2185:  s_3,4#29 + 980 x_3,8,5#178 - S_8,5#458 <= 980
 R18_(j3o4b9l0)#2186:  s_3,4#29 + 980 x_3,9,5#179 - S_9,5#459 <= 980
 R18_(j4o0b0l0)#2187:  s_4,0#30 + 980 x_4,0,4#180 - S_0,4#430 <= 980
 R18_(j4o0b1l0)#2188:  s_4,0#30 + 980 x_4,1,4#181 - S_1,4#431 <= 980
 R18_(j4o0b2l0)#2189:  s_4,0#30 + 980 x_4,2,4#182 - S_2,4#432 <= 980
 R18_(j4o0b3l0)#2190:  s_4,0#30 + 980 x_4,3,4#183 - S_3,4#433 <= 980
 R18_(j4o0b4l0)#2191:  s_4,0#30 + 980 x_4,4,4#184 - S_4,4#434 <= 980
 R18_(j4o0b5l0)#2192:  s_4,0#30 + 980 x_4,5,4#185 - S_5,4#435 <= 980
 R18_(j4o0b6l0)#2193:  s_4,0#30 + 980 x_4,6,4#186 - S_6,4#436 <= 980
 R18_(j4o0b7l0)#2194:  s_4,0#30 + 980 x_4,7,4#187 - S_7,4#437 <= 980
 R18_(j4o0b8l0)#2195:  s_4,0#30 + 980 x_4,8,4#188 - S_8,4#438 <= 980
 R18_(j4o0b9l0)#2196:  s_4,0#30 + 980 x_4,9,4#189 - S_9,4#439 <= 980
 R18_(j4o1b0l0)#2197:  s_4,1#31 + 980 x_4,0,3#190 - S_0,3#440 <= 980
 R18_(j4o1b1l0)#2198:  s_4,1#31 + 980 x_4,1,3#191 - S_1,3#441 <= 980
 R18_(j4o1b2l0)#2199:  s_4,1#31 + 980 x_4,2,3#192 - S_2,3#442 <= 980
 R18_(j4o1b3l0)#2200:  s_4,1#31 + 980 x_4,3,3#193 - S_3,3#443 <= 980
 R18_(j4o1b4l0)#2201:  s_4,1#31 + 980 x_4,4,3#194 - S_4,3#444 <= 980
 R18_(j4o1b5l0)#2202:  s_4,1#31 + 980 x_4,5,3#195 - S_5,3#445 <= 980
 R18_(j4o1b6l0)#2203:  s_4,1#31 + 980 x_4,6,3#196 - S_6,3#446 <= 980
 R18_(j4o1b7l0)#2204:  s_4,1#31 + 980 x_4,7,3#197 - S_7,3#447 <= 980
 R18_(j4o1b8l0)#2205:  s_4,1#31 + 980 x_4,8,3#198 - S_8,3#448 <= 980
 R18_(j4o1b9l0)#2206:  s_4,1#31 + 980 x_4,9,3#199 - S_9,3#449 <= 980
 R18_(j4o4b0l0)#2207:  s_4,4#34 + 980 x_4,0,5#200 - S_0,5#450 <= 980
 R18_(j4o4b1l0)#2208:  s_4,4#34 + 980 x_4,1,5#201 - S_1,5#451 <= 980
 R18_(j4o4b2l0)#2209:  s_4,4#34 + 980 x_4,2,5#202 - S_2,5#452 <= 980
 R18_(j4o4b3l0)#2210:  s_4,4#34 + 980 x_4,3,5#203 - S_3,5#453 <= 980
 R18_(j4o4b4l0)#2211:  s_4,4#34 + 980 x_4,4,5#204 - S_4,5#454 <= 980
 R18_(j4o4b5l0)#2212:  s_4,4#34 + 980 x_4,5,5#205 - S_5,5#455 <= 980
 R18_(j4o4b6l0)#2213:  s_4,4#34 + 980 x_4,6,5#206 - S_6,5#456 <= 980
 R18_(j4o4b7l0)#2214:  s_4,4#34 + 980 x_4,7,5#207 - S_7,5#457 <= 980
 R18_(j4o4b8l0)#2215:  s_4,4#34 + 980 x_4,8,5#208 - S_8,5#458 <= 980
 R18_(j4o4b9l0)#2216:  s_4,4#34 + 980 x_4,9,5#209 - S_9,5#459 <= 980
 R18_(j5o0b0l0)#2217:  s_5,0#35 + 980 x_5,0,4#210 - S_0,4#430 <= 980
 R18_(j5o0b1l0)#2218:  s_5,0#35 + 980 x_5,1,4#211 - S_1,4#431 <= 980
 R18_(j5o0b2l0)#2219:  s_5,0#35 + 980 x_5,2,4#212 - S_2,4#432 <= 980
 R18_(j5o0b3l0)#2220:  s_5,0#35 + 980 x_5,3,4#213 - S_3,4#433 <= 980
 R18_(j5o0b4l0)#2221:  s_5,0#35 + 980 x_5,4,4#214 - S_4,4#434 <= 980
 R18_(j5o0b5l0)#2222:  s_5,0#35 + 980 x_5,5,4#215 - S_5,4#435 <= 980
 R18_(j5o0b6l0)#2223:  s_5,0#35 + 980 x_5,6,4#216 - S_6,4#436 <= 980
 R18_(j5o0b7l0)#2224:  s_5,0#35 + 980 x_5,7,4#217 - S_7,4#437 <= 980
 R18_(j5o0b8l0)#2225:  s_5,0#35 + 980 x_5,8,4#218 - S_8,4#438 <= 980
 R18_(j5o0b9l0)#2226:  s_5,0#35 + 980 x_5,9,4#219 - S_9,4#439 <= 980
 R18_(j5o1b0l0)#2227:  s_5,1#36 + 980 x_5,0,3#220 - S_0,3#440 <= 980
 R18_(j5o1b1l0)#2228:  s_5,1#36 + 980 x_5,1,3#221 - S_1,3#441 <= 980
 R18_(j5o1b2l0)#2229:  s_5,1#36 + 980 x_5,2,3#222 - S_2,3#442 <= 980
 R18_(j5o1b3l0)#2230:  s_5,1#36 + 980 x_5,3,3#223 - S_3,3#443 <= 980
 R18_(j5o1b4l0)#2231:  s_5,1#36 + 980 x_5,4,3#224 - S_4,3#444 <= 980
 R18_(j5o1b5l0)#2232:  s_5,1#36 + 980 x_5,5,3#225 - S_5,3#445 <= 980
 R18_(j5o1b6l0)#2233:  s_5,1#36 + 980 x_5,6,3#226 - S_6,3#446 <= 980
 R18_(j5o1b7l0)#2234:  s_5,1#36 + 980 x_5,7,3#227 - S_7,3#447 <= 980
 R18_(j5o1b8l0)#2235:  s_5,1#36 + 980 x_5,8,3#228 - S_8,3#448 <= 980
 R18_(j5o1b9l0)#2236:  s_5,1#36 + 980 x_5,9,3#229 - S_9,3#449 <= 980
 R18_(j5o4b0l0)#2237:  s_5,4#39 + 980 x_5,0,5#230 - S_0,5#450 <= 980
 R18_(j5o4b1l0)#2238:  s_5,4#39 + 980 x_5,1,5#231 - S_1,5#451 <= 980
 R18_(j5o4b2l0)#2239:  s_5,4#39 + 980 x_5,2,5#232 - S_2,5#452 <= 980
 R18_(j5o4b3l0)#2240:  s_5,4#39 + 980 x_5,3,5#233 - S_3,5#453 <= 980
 R18_(j5o4b4l0)#2241:  s_5,4#39 + 980 x_5,4,5#234 - S_4,5#454 <= 980
 R18_(j5o4b5l0)#2242:  s_5,4#39 + 980 x_5,5,5#235 - S_5,5#455 <= 980
 R18_(j5o4b6l0)#2243:  s_5,4#39 + 980 x_5,6,5#236 - S_6,5#456 <= 980
 R18_(j5o4b7l0)#2244:  s_5,4#39 + 980 x_5,7,5#237 - S_7,5#457 <= 980
 R18_(j5o4b8l0)#2245:  s_5,4#39 + 980 x_5,8,5#238 - S_8,5#458 <= 980
 R18_(j5o4b9l0)#2246:  s_5,4#39 + 980 x_5,9,5#239 - S_9,5#459 <= 980
 R18_(j6o0b0l0)#2247:  s_6,0#40 + 980 x_6,0,4#240 - S_0,4#430 <= 980
 R18_(j6o0b1l0)#2248:  s_6,0#40 + 980 x_6,1,4#241 - S_1,4#431 <= 980
 R18_(j6o0b2l0)#2249:  s_6,0#40 + 980 x_6,2,4#242 - S_2,4#432 <= 980
 R18_(j6o0b3l0)#2250:  s_6,0#40 + 980 x_6,3,4#243 - S_3,4#433 <= 980
 R18_(j6o0b4l0)#2251:  s_6,0#40 + 980 x_6,4,4#244 - S_4,4#434 <= 980
 R18_(j6o0b5l0)#2252:  s_6,0#40 + 980 x_6,5,4#245 - S_5,4#435 <= 980
 R18_(j6o0b6l0)#2253:  s_6,0#40 + 980 x_6,6,4#246 - S_6,4#436 <= 980
 R18_(j6o0b7l0)#2254:  s_6,0#40 + 980 x_6,7,4#247 - S_7,4#437 <= 980
 R18_(j6o0b8l0)#2255:  s_6,0#40 + 980 x_6,8,4#248 - S_8,4#438 <= 980
 R18_(j6o0b9l0)#2256:  s_6,0#40 + 980 x_6,9,4#249 - S_9,4#439 <= 980
 R18_(j6o1b0l0)#2257:  s_6,1#41 + 980 x_6,0,3#250 - S_0,3#440 <= 980
 R18_(j6o1b1l0)#2258:  s_6,1#41 + 980 x_6,1,3#251 - S_1,3#441 <= 980
 R18_(j6o1b2l0)#2259:  s_6,1#41 + 980 x_6,2,3#252 - S_2,3#442 <= 980
 R18_(j6o1b3l0)#2260:  s_6,1#41 + 980 x_6,3,3#253 - S_3,3#443 <= 980
 R18_(j6o1b4l0)#2261:  s_6,1#41 + 980 x_6,4,3#254 - S_4,3#444 <= 980
 R18_(j6o1b5l0)#2262:  s_6,1#41 + 980 x_6,5,3#255 - S_5,3#445 <= 980
 R18_(j6o1b6l0)#2263:  s_6,1#41 + 980 x_6,6,3#256 - S_6,3#446 <= 980
 R18_(j6o1b7l0)#2264:  s_6,1#41 + 980 x_6,7,3#257 - S_7,3#447 <= 980
 R18_(j6o1b8l0)#2265:  s_6,1#41 + 980 x_6,8,3#258 - S_8,3#448 <= 980
 R18_(j6o1b9l0)#2266:  s_6,1#41 + 980 x_6,9,3#259 - S_9,3#449 <= 980
 R18_(j6o4b0l0)#2267:  s_6,4#44 + 980 x_6,0,5#260 - S_0,5#450 <= 980
 R18_(j6o4b1l0)#2268:  s_6,4#44 + 980 x_6,1,5#261 - S_1,5#451 <= 980
 R18_(j6o4b2l0)#2269:  s_6,4#44 + 980 x_6,2,5#262 - S_2,5#452 <= 980
 R18_(j6o4b3l0)#2270:  s_6,4#44 + 980 x_6,3,5#263 - S_3,5#453 <= 980
 R18_(j6o4b4l0)#2271:  s_6,4#44 + 980 x_6,4,5#264 - S_4,5#454 <= 980
 R18_(j6o4b5l0)#2272:  s_6,4#44 + 980 x_6,5,5#265 - S_5,5#455 <= 980
 R18_(j6o4b6l0)#2273:  s_6,4#44 + 980 x_6,6,5#266 - S_6,5#456 <= 980
 R18_(j6o4b7l0)#2274:  s_6,4#44 + 980 x_6,7,5#267 - S_7,5#457 <= 980
 R18_(j6o4b8l0)#2275:  s_6,4#44 + 980 x_6,8,5#268 - S_8,5#458 <= 980
 R18_(j6o4b9l0)#2276:  s_6,4#44 + 980 x_6,9,5#269 - S_9,5#459 <= 980
 R18_(j7o0b0l0)#2277:  s_7,0#45 + 980 x_7,0,4#270 - S_0,4#430 <= 980
 R18_(j7o0b1l0)#2278:  s_7,0#45 + 980 x_7,1,4#271 - S_1,4#431 <= 980
 R18_(j7o0b2l0)#2279:  s_7,0#45 + 980 x_7,2,4#272 - S_2,4#432 <= 980
 R18_(j7o0b3l0)#2280:  s_7,0#45 + 980 x_7,3,4#273 - S_3,4#433 <= 980
 R18_(j7o0b4l0)#2281:  s_7,0#45 + 980 x_7,4,4#274 - S_4,4#434 <= 980
 R18_(j7o0b5l0)#2282:  s_7,0#45 + 980 x_7,5,4#275 - S_5,4#435 <= 980
 R18_(j7o0b6l0)#2283:  s_7,0#45 + 980 x_7,6,4#276 - S_6,4#436 <= 980
 R18_(j7o0b7l0)#2284:  s_7,0#45 + 980 x_7,7,4#277 - S_7,4#437 <= 980
 R18_(j7o0b8l0)#2285:  s_7,0#45 + 980 x_7,8,4#278 - S_8,4#438 <= 980
 R18_(j7o0b9l0)#2286:  s_7,0#45 + 980 x_7,9,4#279 - S_9,4#439 <= 980
 R18_(j7o1b0l0)#2287:  s_7,1#46 + 980 x_7,0,3#280 - S_0,3#440 <= 980
 R18_(j7o1b1l0)#2288:  s_7,1#46 + 980 x_7,1,3#281 - S_1,3#441 <= 980
 R18_(j7o1b2l0)#2289:  s_7,1#46 + 980 x_7,2,3#282 - S_2,3#442 <= 980
 R18_(j7o1b3l0)#2290:  s_7,1#46 + 980 x_7,3,3#283 - S_3,3#443 <= 980
 R18_(j7o1b4l0)#2291:  s_7,1#46 + 980 x_7,4,3#284 - S_4,3#444 <= 980
 R18_(j7o1b5l0)#2292:  s_7,1#46 + 980 x_7,5,3#285 - S_5,3#445 <= 980
 R18_(j7o1b6l0)#2293:  s_7,1#46 + 980 x_7,6,3#286 - S_6,3#446 <= 980
 R18_(j7o1b7l0)#2294:  s_7,1#46 + 980 x_7,7,3#287 - S_7,3#447 <= 980
 R18_(j7o1b8l0)#2295:  s_7,1#46 + 980 x_7,8,3#288 - S_8,3#448 <= 980
 R18_(j7o1b9l0)#2296:  s_7,1#46 + 980 x_7,9,3#289 - S_9,3#449 <= 980
 R18_(j7o4b0l0)#2297:  s_7,4#49 + 980 x_7,0,5#290 - S_0,5#450 <= 980
 R18_(j7o4b1l0)#2298:  s_7,4#49 + 980 x_7,1,5#291 - S_1,5#451 <= 980
 R18_(j7o4b2l0)#2299:  s_7,4#49 + 980 x_7,2,5#292 - S_2,5#452 <= 980
 R18_(j7o4b3l0)#2300:  s_7,4#49 + 980 x_7,3,5#293 - S_3,5#453 <= 980
 R18_(j7o4b4l0)#2301:  s_7,4#49 + 980 x_7,4,5#294 - S_4,5#454 <= 980
 R18_(j7o4b5l0)#2302:  s_7,4#49 + 980 x_7,5,5#295 - S_5,5#455 <= 980
 R18_(j7o4b6l0)#2303:  s_7,4#49 + 980 x_7,6,5#296 - S_6,5#456 <= 980
 R18_(j7o4b7l0)#2304:  s_7,4#49 + 980 x_7,7,5#297 - S_7,5#457 <= 980
 R18_(j7o4b8l0)#2305:  s_7,4#49 + 980 x_7,8,5#298 - S_8,5#458 <= 980
 R18_(j7o4b9l0)#2306:  s_7,4#49 + 980 x_7,9,5#299 - S_9,5#459 <= 980
 R18_(j8o0b0l0)#2307:  s_8,0#50 + 980 x_8,0,4#300 - S_0,4#430 <= 980
 R18_(j8o0b1l0)#2308:  s_8,0#50 + 980 x_8,1,4#301 - S_1,4#431 <= 980
 R18_(j8o0b2l0)#2309:  s_8,0#50 + 980 x_8,2,4#302 - S_2,4#432 <= 980
 R18_(j8o0b3l0)#2310:  s_8,0#50 + 980 x_8,3,4#303 - S_3,4#433 <= 980
 R18_(j8o0b4l0)#2311:  s_8,0#50 + 980 x_8,4,4#304 - S_4,4#434 <= 980
 R18_(j8o0b5l0)#2312:  s_8,0#50 + 980 x_8,5,4#305 - S_5,4#435 <= 980
 R18_(j8o0b6l0)#2313:  s_8,0#50 + 980 x_8,6,4#306 - S_6,4#436 <= 980
 R18_(j8o0b7l0)#2314:  s_8,0#50 + 980 x_8,7,4#307 - S_7,4#437 <= 980
 R18_(j8o0b8l0)#2315:  s_8,0#50 + 980 x_8,8,4#308 - S_8,4#438 <= 980
 R18_(j8o0b9l0)#2316:  s_8,0#50 + 980 x_8,9,4#309 - S_9,4#439 <= 980
 R18_(j8o1b0l0)#2317:  s_8,1#51 + 980 x_8,0,3#310 - S_0,3#440 <= 980
 R18_(j8o1b1l0)#2318:  s_8,1#51 + 980 x_8,1,3#311 - S_1,3#441 <= 980
 R18_(j8o1b2l0)#2319:  s_8,1#51 + 980 x_8,2,3#312 - S_2,3#442 <= 980
 R18_(j8o1b3l0)#2320:  s_8,1#51 + 980 x_8,3,3#313 - S_3,3#443 <= 980
 R18_(j8o1b4l0)#2321:  s_8,1#51 + 980 x_8,4,3#314 - S_4,3#444 <= 980
 R18_(j8o1b5l0)#2322:  s_8,1#51 + 980 x_8,5,3#315 - S_5,3#445 <= 980
 R18_(j8o1b6l0)#2323:  s_8,1#51 + 980 x_8,6,3#316 - S_6,3#446 <= 980
 R18_(j8o1b7l0)#2324:  s_8,1#51 + 980 x_8,7,3#317 - S_7,3#447 <= 980
 R18_(j8o1b8l0)#2325:  s_8,1#51 + 980 x_8,8,3#318 - S_8,3#448 <= 980
 R18_(j8o1b9l0)#2326:  s_8,1#51 + 980 x_8,9,3#319 - S_9,3#449 <= 980
 R18_(j8o4b0l0)#2327:  s_8,4#54 + 980 x_8,0,5#320 - S_0,5#450 <= 980
 R18_(j8o4b1l0)#2328:  s_8,4#54 + 980 x_8,1,5#321 - S_1,5#451 <= 980
 R18_(j8o4b2l0)#2329:  s_8,4#54 + 980 x_8,2,5#322 - S_2,5#452 <= 980
 R18_(j8o4b3l0)#2330:  s_8,4#54 + 980 x_8,3,5#323 - S_3,5#453 <= 980
 R18_(j8o4b4l0)#2331:  s_8,4#54 + 980 x_8,4,5#324 - S_4,5#454 <= 980
 R18_(j8o4b5l0)#2332:  s_8,4#54 + 980 x_8,5,5#325 - S_5,5#455 <= 980
 R18_(j8o4b6l0)#2333:  s_8,4#54 + 980 x_8,6,5#326 - S_6,5#456 <= 980
 R18_(j8o4b7l0)#2334:  s_8,4#54 + 980 x_8,7,5#327 - S_7,5#457 <= 980
 R18_(j8o4b8l0)#2335:  s_8,4#54 + 980 x_8,8,5#328 - S_8,5#458 <= 980
 R18_(j8o4b9l0)#2336:  s_8,4#54 + 980 x_8,9,5#329 - S_9,5#459 <= 980
 R18_(j9o0b0l0)#2337:  s_9,0#55 + 980 x_9,0,4#330 - S_0,4#430 <= 980
 R18_(j9o0b1l0)#2338:  s_9,0#55 + 980 x_9,1,4#331 - S_1,4#431 <= 980
 R18_(j9o0b2l0)#2339:  s_9,0#55 + 980 x_9,2,4#332 - S_2,4#432 <= 980
 R18_(j9o0b3l0)#2340:  s_9,0#55 + 980 x_9,3,4#333 - S_3,4#433 <= 980
 R18_(j9o0b4l0)#2341:  s_9,0#55 + 980 x_9,4,4#334 - S_4,4#434 <= 980
 R18_(j9o0b5l0)#2342:  s_9,0#55 + 980 x_9,5,4#335 - S_5,4#435 <= 980
 R18_(j9o0b6l0)#2343:  s_9,0#55 + 980 x_9,6,4#336 - S_6,4#436 <= 980
 R18_(j9o0b7l0)#2344:  s_9,0#55 + 980 x_9,7,4#337 - S_7,4#437 <= 980
 R18_(j9o0b8l0)#2345:  s_9,0#55 + 980 x_9,8,4#338 - S_8,4#438 <= 980
 R18_(j9o0b9l0)#2346:  s_9,0#55 + 980 x_9,9,4#339 - S_9,4#439 <= 980
 R18_(j9o1b0l0)#2347:  s_9,1#56 + 980 x_9,0,3#340 - S_0,3#440 <= 980
 R18_(j9o1b1l0)#2348:  s_9,1#56 + 980 x_9,1,3#341 - S_1,3#441 <= 980
 R18_(j9o1b2l0)#2349:  s_9,1#56 + 980 x_9,2,3#342 - S_2,3#442 <= 980
 R18_(j9o1b3l0)#2350:  s_9,1#56 + 980 x_9,3,3#343 - S_3,3#443 <= 980
 R18_(j9o1b4l0)#2351:  s_9,1#56 + 980 x_9,4,3#344 - S_4,3#444 <= 980
 R18_(j9o1b5l0)#2352:  s_9,1#56 + 980 x_9,5,3#345 - S_5,3#445 <= 980
 R18_(j9o1b6l0)#2353:  s_9,1#56 + 980 x_9,6,3#346 - S_6,3#446 <= 980
 R18_(j9o1b7l0)#2354:  s_9,1#56 + 980 x_9,7,3#347 - S_7,3#447 <= 980
 R18_(j9o1b8l0)#2355:  s_9,1#56 + 980 x_9,8,3#348 - S_8,3#448 <= 980
 R18_(j9o1b9l0)#2356:  s_9,1#56 + 980 x_9,9,3#349 - S_9,3#449 <= 980
 R18_(j9o4b0l0)#2357:  s_9,4#59 + 980 x_9,0,5#350 - S_0,5#450 <= 980
 R18_(j9o4b1l0)#2358:  s_9,4#59 + 980 x_9,1,5#351 - S_1,5#451 <= 980
 R18_(j9o4b2l0)#2359:  s_9,4#59 + 980 x_9,2,5#352 - S_2,5#452 <= 980
 R18_(j9o4b3l0)#2360:  s_9,4#59 + 980 x_9,3,5#353 - S_3,5#453 <= 980
 R18_(j9o4b4l0)#2361:  s_9,4#59 + 980 x_9,4,5#354 - S_4,5#454 <= 980
 R18_(j9o4b5l0)#2362:  s_9,4#59 + 980 x_9,5,5#355 - S_5,5#455 <= 980
 R18_(j9o4b6l0)#2363:  s_9,4#59 + 980 x_9,6,5#356 - S_6,5#456 <= 980
 R18_(j9o4b7l0)#2364:  s_9,4#59 + 980 x_9,7,5#357 - S_7,5#457 <= 980
 R18_(j9o4b8l0)#2365:  s_9,4#59 + 980 x_9,8,5#358 - S_8,5#458 <= 980
 R18_(j9o4b9l0)#2366:  s_9,4#59 + 980 x_9,9,5#359 - S_9,5#459 <= 980
 R21_(j0i0o0p0)#2367:  <= 999999
 R21_(j0i0o0p1)#2368:  - s_0,0#10 + s_0,1#11 <= 999999
 R21_(j0i0o0p2)#2369:  - s_0,0#10 + s_0,2#12 <= 999999
 R21_(j0i0o0p3)#2370:  - s_0,0#10 + s_0,3#13 <= 999999
 R21_(j0i0o0p4)#2371:  - s_0,0#10 + s_0,4#14 <= 999999
 R21_(j0i0o1p0)#2372:  s_0,0#10 - s_0,1#11 <= 999999
 R21_(j0i0o1p1)#2373:  <= 999999
 R21_(j0i0o1p2)#2374:  - s_0,1#11 + s_0,2#12 <= 999999
 R21_(j0i0o1p3)#2375:  - s_0,1#11 + s_0,3#13 <= 57
 R21_(j0i0o1p4)#2376:  - s_0,1#11 + s_0,4#14 <= 999999
 R21_(j0i0o2p0)#2377:  s_0,0#10 - s_0,2#12 <= 999999
 R21_(j0i0o2p1)#2378:  s_0,1#11 - s_0,2#12 <= 999999
 R21_(j0i0o2p2)#2379:  <= 999999
 R21_(j0i0o2p3)#2380:  - s_0,2#12 + s_0,3#13 <= 24
 R21_(j0i0o2p4)#2381:  - s_0,2#12 + s_0,4#14 <= 999999
 R21_(j0i0o3p0)#2382:  s_0,0#10 - s_0,3#13 <= 999999
 R21_(j0i0o3p1)#2383:  s_0,1#11 - s_0,3#13 <= 999999
 R21_(j0i0o3p2)#2384:  s_0,2#12 - s_0,3#13 <= 999999
 R21_(j0i0o3p3)#2385:  <= 999999
 R21_(j0i0o3p4)#2386:  - s_0,3#13 + s_0,4#14 <= 999999
 R21_(j0i0o4p0)#2387:  s_0,0#10 - s_0,4#14 <= 999999
 R21_(j0i0o4p1)#2388:  s_0,1#11 - s_0,4#14 <= 999999
 R21_(j0i0o4p2)#2389:  s_0,2#12 - s_0,4#14 <= 999999
 R21_(j0i0o4p3)#2390:  s_0,3#13 - s_0,4#14 <= 999999
 R21_(j0i0o4p4)#2391:  <= 999999
 R21_(j1i0o0p0)#2392:  <= 999999
 R21_(j1i0o0p1)#2393:  - s_1,0#15 + s_1,1#16 <= 999999
 R21_(j1i0o0p2)#2394:  - s_1,0#15 + s_1,2#17 <= 999999
 R21_(j1i0o0p3)#2395:  - s_1,0#15 + s_1,3#18 <= 999999
 R21_(j1i0o0p4)#2396:  - s_1,0#15 + s_1,4#19 <= 999999
 R21_(j1i0o1p0)#2397:  s_1,0#15 - s_1,1#16 <= 999999
 R21_(j1i0o1p1)#2398:  <= 999999
 R21_(j1i0o1p2)#2399:  - s_1,1#16 + s_1,2#17 <= 999999
 R21_(j1i0o1p3)#2400:  - s_1,1#16 + s_1,3#18 <= 57
 R21_(j1i0o1p4)#2401:  - s_1,1#16 + s_1,4#19 <= 999999
 R21_(j1i0o2p0)#2402:  s_1,0#15 - s_1,2#17 <= 999999
 R21_(j1i0o2p1)#2403:  s_1,1#16 - s_1,2#17 <= 999999
 R21_(j1i0o2p2)#2404:  <= 999999
 R21_(j1i0o2p3)#2405:  - s_1,2#17 + s_1,3#18 <= 24
 R21_(j1i0o2p4)#2406:  - s_1,2#17 + s_1,4#19 <= 999999
 R21_(j1i0o3p0)#2407:  s_1,0#15 - s_1,3#18 <= 999999
 R21_(j1i0o3p1)#2408:  s_1,1#16 - s_1,3#18 <= 999999
 R21_(j1i0o3p2)#2409:  s_1,2#17 - s_1,3#18 <= 999999
 R21_(j1i0o3p3)#2410:  <= 999999
 R21_(j1i0o3p4)#2411:  - s_1,3#18 + s_1,4#19 <= 999999
 R21_(j1i0o4p0)#2412:  s_1,0#15 - s_1,4#19 <= 999999
 R21_(j1i0o4p1)#2413:  s_1,1#16 - s_1,4#19 <= 999999
 R21_(j1i0o4p2)#2414:  s_1,2#17 - s_1,4#19 <= 999999
 R21_(j1i0o4p3)#2415:  s_1,3#18 - s_1,4#19 <= 999999
 R21_(j1i0o4p4)#2416:  <= 999999
 R21_(j2i0o0p0)#2417:  <= 999999
 R21_(j2i0o0p1)#2418:  - s_2,0#20 + s_2,1#21 <= 999999
 R21_(j2i0o0p2)#2419:  - s_2,0#20 + s_2,2#22 <= 999999
 R21_(j2i0o0p3)#2420:  - s_2,0#20 + s_2,3#23 <= 999999
 R21_(j2i0o0p4)#2421:  - s_2,0#20 + s_2,4#24 <= 999999
 R21_(j2i0o1p0)#2422:  s_2,0#20 - s_2,1#21 <= 999999
 R21_(j2i0o1p1)#2423:  <= 999999
 R21_(j2i0o1p2)#2424:  - s_2,1#21 + s_2,2#22 <= 999999
 R21_(j2i0o1p3)#2425:  - s_2,1#21 + s_2,3#23 <= 57
 R21_(j2i0o1p4)#2426:  - s_2,1#21 + s_2,4#24 <= 999999
 R21_(j2i0o2p0)#2427:  s_2,0#20 - s_2,2#22 <= 999999
 R21_(j2i0o2p1)#2428:  s_2,1#21 - s_2,2#22 <= 999999
 R21_(j2i0o2p2)#2429:  <= 999999
 R21_(j2i0o2p3)#2430:  - s_2,2#22 + s_2,3#23 <= 24
 R21_(j2i0o2p4)#2431:  - s_2,2#22 + s_2,4#24 <= 999999
 R21_(j2i0o3p0)#2432:  s_2,0#20 - s_2,3#23 <= 999999
 R21_(j2i0o3p1)#2433:  s_2,1#21 - s_2,3#23 <= 999999
 R21_(j2i0o3p2)#2434:  s_2,2#22 - s_2,3#23 <= 999999
 R21_(j2i0o3p3)#2435:  <= 999999
 R21_(j2i0o3p4)#2436:  - s_2,3#23 + s_2,4#24 <= 999999
 R21_(j2i0o4p0)#2437:  s_2,0#20 - s_2,4#24 <= 999999
 R21_(j2i0o4p1)#2438:  s_2,1#21 - s_2,4#24 <= 999999
 R21_(j2i0o4p2)#2439:  s_2,2#22 - s_2,4#24 <= 999999
 R21_(j2i0o4p3)#2440:  s_2,3#23 - s_2,4#24 <= 999999
 R21_(j2i0o4p4)#2441:  <= 999999
 R21_(j3i0o0p0)#2442:  <= 999999
 R21_(j3i0o0p1)#2443:  - s_3,0#25 + s_3,1#26 <= 999999
 R21_(j3i0o0p2)#2444:  - s_3,0#25 + s_3,2#27 <= 999999
 R21_(j3i0o0p3)#2445:  - s_3,0#25 + s_3,3#28 <= 999999
 R21_(j3i0o0p4)#2446:  - s_3,0#25 + s_3,4#29 <= 999999
 R21_(j3i0o1p0)#2447:  s_3,0#25 - s_3,1#26 <= 999999
 R21_(j3i0o1p1)#2448:  <= 999999
 R21_(j3i0o1p2)#2449:  - s_3,1#26 + s_3,2#27 <= 999999
 R21_(j3i0o1p3)#2450:  - s_3,1#26 + s_3,3#28 <= 57
 R21_(j3i0o1p4)#2451:  - s_3,1#26 + s_3,4#29 <= 999999
 R21_(j3i0o2p0)#2452:  s_3,0#25 - s_3,2#27 <= 999999
 R21_(j3i0o2p1)#2453:  s_3,1#26 - s_3,2#27 <= 999999
 R21_(j3i0o2p2)#2454:  <= 999999
 R21_(j3i0o2p3)#2455:  - s_3,2#27 + s_3,3#28 <= 24
 R21_(j3i0o2p4)#2456:  - s_3,2#27 + s_3,4#29 <= 999999
 R21_(j3i0o3p0)#2457:  s_3,0#25 - s_3,3#28 <= 999999
 R21_(j3i0o3p1)#2458:  s_3,1#26 - s_3,3#28 <= 999999
 R21_(j3i0o3p2)#2459:  s_3,2#27 - s_3,3#28 <= 999999
 R21_(j3i0o3p3)#2460:  <= 999999
 R21_(j3i0o3p4)#2461:  - s_3,3#28 + s_3,4#29 <= 999999
 R21_(j3i0o4p0)#2462:  s_3,0#25 - s_3,4#29 <= 999999
 R21_(j3i0o4p1)#2463:  s_3,1#26 - s_3,4#29 <= 999999
 R21_(j3i0o4p2)#2464:  s_3,2#27 - s_3,4#29 <= 999999
 R21_(j3i0o4p3)#2465:  s_3,3#28 - s_3,4#29 <= 999999
 R21_(j3i0o4p4)#2466:  <= 999999
 R21_(j4i0o0p0)#2467:  <= 999999
 R21_(j4i0o0p1)#2468:  - s_4,0#30 + s_4,1#31 <= 999999
 R21_(j4i0o0p2)#2469:  - s_4,0#30 + s_4,2#32 <= 999999
 R21_(j4i0o0p3)#2470:  - s_4,0#30 + s_4,3#33 <= 999999
 R21_(j4i0o0p4)#2471:  - s_4,0#30 + s_4,4#34 <= 999999
 R21_(j4i0o1p0)#2472:  s_4,0#30 - s_4,1#31 <= 999999
 R21_(j4i0o1p1)#2473:  <= 999999
 R21_(j4i0o1p2)#2474:  - s_4,1#31 + s_4,2#32 <= 999999
 R21_(j4i0o1p3)#2475:  - s_4,1#31 + s_4,3#33 <= 57
 R21_(j4i0o1p4)#2476:  - s_4,1#31 + s_4,4#34 <= 999999
 R21_(j4i0o2p0)#2477:  s_4,0#30 - s_4,2#32 <= 999999
 R21_(j4i0o2p1)#2478:  s_4,1#31 - s_4,2#32 <= 999999
 R21_(j4i0o2p2)#2479:  <= 999999
 R21_(j4i0o2p3)#2480:  - s_4,2#32 + s_4,3#33 <= 24
 R21_(j4i0o2p4)#2481:  - s_4,2#32 + s_4,4#34 <= 999999
 R21_(j4i0o3p0)#2482:  s_4,0#30 - s_4,3#33 <= 999999
 R21_(j4i0o3p1)#2483:  s_4,1#31 - s_4,3#33 <= 999999
 R21_(j4i0o3p2)#2484:  s_4,2#32 - s_4,3#33 <= 999999
 R21_(j4i0o3p3)#2485:  <= 999999
 R21_(j4i0o3p4)#2486:  - s_4,3#33 + s_4,4#34 <= 999999
 R21_(j4i0o4p0)#2487:  s_4,0#30 - s_4,4#34 <= 999999
 R21_(j4i0o4p1)#2488:  s_4,1#31 - s_4,4#34 <= 999999
 R21_(j4i0o4p2)#2489:  s_4,2#32 - s_4,4#34 <= 999999
 R21_(j4i0o4p3)#2490:  s_4,3#33 - s_4,4#34 <= 999999
 R21_(j4i0o4p4)#2491:  <= 999999
 R21_(j5i0o0p0)#2492:  <= 999999
 R21_(j5i0o0p1)#2493:  - s_5,0#35 + s_5,1#36 <= 999999
 R21_(j5i0o0p2)#2494:  - s_5,0#35 + s_5,2#37 <= 999999
 R21_(j5i0o0p3)#2495:  - s_5,0#35 + s_5,3#38 <= 999999
 R21_(j5i0o0p4)#2496:  - s_5,0#35 + s_5,4#39 <= 999999
 R21_(j5i0o1p0)#2497:  s_5,0#35 - s_5,1#36 <= 999999
 R21_(j5i0o1p1)#2498:  <= 999999
 R21_(j5i0o1p2)#2499:  - s_5,1#36 + s_5,2#37 <= 999999
 R21_(j5i0o1p3)#2500:  - s_5,1#36 + s_5,3#38 <= 57
 R21_(j5i0o1p4)#2501:  - s_5,1#36 + s_5,4#39 <= 999999
 R21_(j5i0o2p0)#2502:  s_5,0#35 - s_5,2#37 <= 999999
 R21_(j5i0o2p1)#2503:  s_5,1#36 - s_5,2#37 <= 999999
 R21_(j5i0o2p2)#2504:  <= 999999
 R21_(j5i0o2p3)#2505:  - s_5,2#37 + s_5,3#38 <= 24
 R21_(j5i0o2p4)#2506:  - s_5,2#37 + s_5,4#39 <= 999999
 R21_(j5i0o3p0)#2507:  s_5,0#35 - s_5,3#38 <= 999999
 R21_(j5i0o3p1)#2508:  s_5,1#36 - s_5,3#38 <= 999999
 R21_(j5i0o3p2)#2509:  s_5,2#37 - s_5,3#38 <= 999999
 R21_(j5i0o3p3)#2510:  <= 999999
 R21_(j5i0o3p4)#2511:  - s_5,3#38 + s_5,4#39 <= 999999
 R21_(j5i0o4p0)#2512:  s_5,0#35 - s_5,4#39 <= 999999
 R21_(j5i0o4p1)#2513:  s_5,1#36 - s_5,4#39 <= 999999
 R21_(j5i0o4p2)#2514:  s_5,2#37 - s_5,4#39 <= 999999
 R21_(j5i0o4p3)#2515:  s_5,3#38 - s_5,4#39 <= 999999
 R21_(j5i0o4p4)#2516:  <= 999999
 R21_(j6i0o0p0)#2517:  <= 999999
 R21_(j6i0o0p1)#2518:  - s_6,0#40 + s_6,1#41 <= 999999
 R21_(j6i0o0p2)#2519:  - s_6,0#40 + s_6,2#42 <= 999999
 R21_(j6i0o0p3)#2520:  - s_6,0#40 + s_6,3#43 <= 999999
 R21_(j6i0o0p4)#2521:  - s_6,0#40 + s_6,4#44 <= 999999
 R21_(j6i0o1p0)#2522:  s_6,0#40 - s_6,1#41 <= 999999
 R21_(j6i0o1p1)#2523:  <= 999999
 R21_(j6i0o1p2)#2524:  - s_6,1#41 + s_6,2#42 <= 999999
 R21_(j6i0o1p3)#2525:  - s_6,1#41 + s_6,3#43 <= 57
 R21_(j6i0o1p4)#2526:  - s_6,1#41 + s_6,4#44 <= 999999
 R21_(j6i0o2p0)#2527:  s_6,0#40 - s_6,2#42 <= 999999
 R21_(j6i0o2p1)#2528:  s_6,1#41 - s_6,2#42 <= 999999
 R21_(j6i0o2p2)#2529:  <= 999999
 R21_(j6i0o2p3)#2530:  - s_6,2#42 + s_6,3#43 <= 24
 R21_(j6i0o2p4)#2531:  - s_6,2#42 + s_6,4#44 <= 999999
 R21_(j6i0o3p0)#2532:  s_6,0#40 - s_6,3#43 <= 999999
 R21_(j6i0o3p1)#2533:  s_6,1#41 - s_6,3#43 <= 999999
 R21_(j6i0o3p2)#2534:  s_6,2#42 - s_6,3#43 <= 999999
 R21_(j6i0o3p3)#2535:  <= 999999
 R21_(j6i0o3p4)#2536:  - s_6,3#43 + s_6,4#44 <= 999999
 R21_(j6i0o4p0)#2537:  s_6,0#40 - s_6,4#44 <= 999999
 R21_(j6i0o4p1)#2538:  s_6,1#41 - s_6,4#44 <= 999999
 R21_(j6i0o4p2)#2539:  s_6,2#42 - s_6,4#44 <= 999999
 R21_(j6i0o4p3)#2540:  s_6,3#43 - s_6,4#44 <= 999999
 R21_(j6i0o4p4)#2541:  <= 999999
 R21_(j7i0o0p0)#2542:  <= 999999
 R21_(j7i0o0p1)#2543:  - s_7,0#45 + s_7,1#46 <= 999999
 R21_(j7i0o0p2)#2544:  - s_7,0#45 + s_7,2#47 <= 999999
 R21_(j7i0o0p3)#2545:  - s_7,0#45 + s_7,3#48 <= 999999
 R21_(j7i0o0p4)#2546:  - s_7,0#45 + s_7,4#49 <= 999999
 R21_(j7i0o1p0)#2547:  s_7,0#45 - s_7,1#46 <= 999999
 R21_(j7i0o1p1)#2548:  <= 999999
 R21_(j7i0o1p2)#2549:  - s_7,1#46 + s_7,2#47 <= 999999
 R21_(j7i0o1p3)#2550:  - s_7,1#46 + s_7,3#48 <= 57
 R21_(j7i0o1p4)#2551:  - s_7,1#46 + s_7,4#49 <= 999999
 R21_(j7i0o2p0)#2552:  s_7,0#45 - s_7,2#47 <= 999999
 R21_(j7i0o2p1)#2553:  s_7,1#46 - s_7,2#47 <= 999999
 R21_(j7i0o2p2)#2554:  <= 999999
 R21_(j7i0o2p3)#2555:  - s_7,2#47 + s_7,3#48 <= 24
 R21_(j7i0o2p4)#2556:  - s_7,2#47 + s_7,4#49 <= 999999
 R21_(j7i0o3p0)#2557:  s_7,0#45 - s_7,3#48 <= 999999
 R21_(j7i0o3p1)#2558:  s_7,1#46 - s_7,3#48 <= 999999
 R21_(j7i0o3p2)#2559:  s_7,2#47 - s_7,3#48 <= 999999
 R21_(j7i0o3p3)#2560:  <= 999999
 R21_(j7i0o3p4)#2561:  - s_7,3#48 + s_7,4#49 <= 999999
 R21_(j7i0o4p0)#2562:  s_7,0#45 - s_7,4#49 <= 999999
 R21_(j7i0o4p1)#2563:  s_7,1#46 - s_7,4#49 <= 999999
 R21_(j7i0o4p2)#2564:  s_7,2#47 - s_7,4#49 <= 999999
 R21_(j7i0o4p3)#2565:  s_7,3#48 - s_7,4#49 <= 999999
 R21_(j7i0o4p4)#2566:  <= 999999
 R21_(j8i0o0p0)#2567:  <= 999999
 R21_(j8i0o0p1)#2568:  - s_8,0#50 + s_8,1#51 <= 999999
 R21_(j8i0o0p2)#2569:  - s_8,0#50 + s_8,2#52 <= 999999
 R21_(j8i0o0p3)#2570:  - s_8,0#50 + s_8,3#53 <= 999999
 R21_(j8i0o0p4)#2571:  - s_8,0#50 + s_8,4#54 <= 999999
 R21_(j8i0o1p0)#2572:  s_8,0#50 - s_8,1#51 <= 999999
 R21_(j8i0o1p1)#2573:  <= 999999
 R21_(j8i0o1p2)#2574:  - s_8,1#51 + s_8,2#52 <= 999999
 R21_(j8i0o1p3)#2575:  - s_8,1#51 + s_8,3#53 <= 57
 R21_(j8i0o1p4)#2576:  - s_8,1#51 + s_8,4#54 <= 999999
 R21_(j8i0o2p0)#2577:  s_8,0#50 - s_8,2#52 <= 999999
 R21_(j8i0o2p1)#2578:  s_8,1#51 - s_8,2#52 <= 999999
 R21_(j8i0o2p2)#2579:  <= 999999
 R21_(j8i0o2p3)#2580:  - s_8,2#52 + s_8,3#53 <= 24
 R21_(j8i0o2p4)#2581:  - s_8,2#52 + s_8,4#54 <= 999999
 R21_(j8i0o3p0)#2582:  s_8,0#50 - s_8,3#53 <= 999999
 R21_(j8i0o3p1)#2583:  s_8,1#51 - s_8,3#53 <= 999999
 R21_(j8i0o3p2)#2584:  s_8,2#52 - s_8,3#53 <= 999999
 R21_(j8i0o3p3)#2585:  <= 999999
 R21_(j8i0o3p4)#2586:  - s_8,3#53 + s_8,4#54 <= 999999
 R21_(j8i0o4p0)#2587:  s_8,0#50 - s_8,4#54 <= 999999
 R21_(j8i0o4p1)#2588:  s_8,1#51 - s_8,4#54 <= 999999
 R21_(j8i0o4p2)#2589:  s_8,2#52 - s_8,4#54 <= 999999
 R21_(j8i0o4p3)#2590:  s_8,3#53 - s_8,4#54 <= 999999
 R21_(j8i0o4p4)#2591:  <= 999999
 R21_(j9i0o0p0)#2592:  <= 999999
 R21_(j9i0o0p1)#2593:  - s_9,0#55 + s_9,1#56 <= 999999
 R21_(j9i0o0p2)#2594:  - s_9,0#55 + s_9,2#57 <= 999999
 R21_(j9i0o0p3)#2595:  - s_9,0#55 + s_9,3#58 <= 999999
 R21_(j9i0o0p4)#2596:  - s_9,0#55 + s_9,4#59 <= 999999
 R21_(j9i0o1p0)#2597:  s_9,0#55 - s_9,1#56 <= 999999
 R21_(j9i0o1p1)#2598:  <= 999999
 R21_(j9i0o1p2)#2599:  - s_9,1#56 + s_9,2#57 <= 999999
 R21_(j9i0o1p3)#2600:  - s_9,1#56 + s_9,3#58 <= 57
 R21_(j9i0o1p4)#2601:  - s_9,1#56 + s_9,4#59 <= 999999
 R21_(j9i0o2p0)#2602:  s_9,0#55 - s_9,2#57 <= 999999
 R21_(j9i0o2p1)#2603:  s_9,1#56 - s_9,2#57 <= 999999
 R21_(j9i0o2p2)#2604:  <= 999999
 R21_(j9i0o2p3)#2605:  - s_9,2#57 + s_9,3#58 <= 24
 R21_(j9i0o2p4)#2606:  - s_9,2#57 + s_9,4#59 <= 999999
 R21_(j9i0o3p0)#2607:  s_9,0#55 - s_9,3#58 <= 999999
 R21_(j9i0o3p1)#2608:  s_9,1#56 - s_9,3#58 <= 999999
 R21_(j9i0o3p2)#2609:  s_9,2#57 - s_9,3#58 <= 999999
 R21_(j9i0o3p3)#2610:  <= 999999
 R21_(j9i0o3p4)#2611:  - s_9,3#58 + s_9,4#59 <= 999999
 R21_(j9i0o4p0)#2612:  s_9,0#55 - s_9,4#59 <= 999999
 R21_(j9i0o4p1)#2613:  s_9,1#56 - s_9,4#59 <= 999999
 R21_(j9i0o4p2)#2614:  s_9,2#57 - s_9,4#59 <= 999999
 R21_(j9i0o4p3)#2615:  s_9,3#58 - s_9,4#59 <= 999999
 R21_(j9i0o4p4)#2616:  <= 999999
 R22_(j0i0)#2617:      - T_0#0 + s_0,4#14 <= 221
 R22_(j1i0)#2618:      - T_1#1 + s_1,4#19 <= 151
 R22_(j2i0)#2619:      - T_2#2 + s_2,4#24 <= 252
 R22_(j3i0)#2620:      - T_3#3 + s_3,4#29 <= 179
 R22_(j4i0)#2621:      - T_4#4 + s_4,4#34 <= 240
 R22_(j5i0)#2622:      - T_5#5 + s_5,4#39 <= 186
 R22_(j6i0)#2623:      - T_6#6 + s_6,4#44 <= 239
 R22_(j7i0)#2624:      - T_7#7 + s_7,4#49 <= 213
 R22_(j8i0)#2625:      - T_8#8 + s_8,4#54 <= 207
 R22_(j9i0)#2626:      - T_9#9 + s_9,4#59 <= 207
Bounds
 0 <= x_0,0,4#60 <= 1
 0 <= x_0,1,4#61 <= 1
 0 <= x_0,2,4#62 <= 1
 0 <= x_0,3,4#63 <= 1
 0 <= x_0,4,4#64 <= 1
 0 <= x_0,5,4#65 <= 1
 0 <= x_0,6,4#66 <= 1
 0 <= x_0,7,4#67 <= 1
 0 <= x_0,8,4#68 <= 1
 0 <= x_0,9,4#69 <= 1
 0 <= x_0,0,3#70 <= 1
 0 <= x_0,1,3#71 <= 1
 0 <= x_0,2,3#72 <= 1
 0 <= x_0,3,3#73 <= 1
 0 <= x_0,4,3#74 <= 1
 0 <= x_0,5,3#75 <= 1
 0 <= x_0,6,3#76 <= 1
 0 <= x_0,7,3#77 <= 1
 0 <= x_0,8,3#78 <= 1
 0 <= x_0,9,3#79 <= 1
 0 <= x_0,0,5#80 <= 1
 0 <= x_0,1,5#81 <= 1
 0 <= x_0,2,5#82 <= 1
 0 <= x_0,3,5#83 <= 1
 0 <= x_0,4,5#84 <= 1
 0 <= x_0,5,5#85 <= 1
 0 <= x_0,6,5#86 <= 1
 0 <= x_0,7,5#87 <= 1
 0 <= x_0,8,5#88 <= 1
 0 <= x_0,9,5#89 <= 1
 0 <= x_1,0,4#90 <= 1
 0 <= x_1,1,4#91 <= 1
 0 <= x_1,2,4#92 <= 1
 0 <= x_1,3,4#93 <= 1
 0 <= x_1,4,4#94 <= 1
 0 <= x_1,5,4#95 <= 1
 0 <= x_1,6,4#96 <= 1
 0 <= x_1,7,4#97 <= 1
 0 <= x_1,8,4#98 <= 1
 0 <= x_1,9,4#99 <= 1
 0 <= x_1,0,3#100 <= 1
 0 <= x_1,1,3#101 <= 1
 0 <= x_1,2,3#102 <= 1
 0 <= x_1,3,3#103 <= 1
 0 <= x_1,4,3#104 <= 1
 0 <= x_1,5,3#105 <= 1
 0 <= x_1,6,3#106 <= 1
 0 <= x_1,7,3#107 <= 1
 0 <= x_1,8,3#108 <= 1
 0 <= x_1,9,3#109 <= 1
 0 <= x_1,0,5#110 <= 1
 0 <= x_1,1,5#111 <= 1
 0 <= x_1,2,5#112 <= 1
 0 <= x_1,3,5#113 <= 1
 0 <= x_1,4,5#114 <= 1
 0 <= x_1,5,5#115 <= 1
 0 <= x_1,6,5#116 <= 1
 0 <= x_1,7,5#117 <= 1
 0 <= x_1,8,5#118 <= 1
 0 <= x_1,9,5#119 <= 1
 0 <= x_2,0,4#120 <= 1
 0 <= x_2,1,4#121 <= 1
 0 <= x_2,2,4#122 <= 1
 0 <= x_2,3,4#123 <= 1
 0 <= x_2,4,4#124 <= 1
 0 <= x_2,5,4#125 <= 1
 0 <= x_2,6,4#126 <= 1
 0 <= x_2,7,4#127 <= 1
 0 <= x_2,8,4#128 <= 1
 0 <= x_2,9,4#129 <= 1
 0 <= x_2,0,3#130 <= 1
 0 <= x_2,1,3#131 <= 1
 0 <= x_2,2,3#132 <= 1
 0 <= x_2,3,3#133 <= 1
 0 <= x_2,4,3#134 <= 1
 0 <= x_2,5,3#135 <= 1
 0 <= x_2,6,3#136 <= 1
 0 <= x_2,7,3#137 <= 1
 0 <= x_2,8,3#138 <= 1
 0 <= x_2,9,3#139 <= 1
 0 <= x_2,0,5#140 <= 1
 0 <= x_2,1,5#141 <= 1
 0 <= x_2,2,5#142 <= 1
 0 <= x_2,3,5#143 <= 1
 0 <= x_2,4,5#144 <= 1
 0 <= x_2,5,5#145 <= 1
 0 <= x_2,6,5#146 <= 1
 0 <= x_2,7,5#147 <= 1
 0 <= x_2,8,5#148 <= 1
 0 <= x_2,9,5#149 <= 1
 0 <= x_3,0,4#150 <= 1
 0 <= x_3,1,4#151 <= 1
 0 <= x_3,2,4#152 <= 1
 0 <= x_3,3,4#153 <= 1
 0 <= x_3,4,4#154 <= 1
 0 <= x_3,5,4#155 <= 1
 0 <= x_3,6,4#156 <= 1
 0 <= x_3,7,4#157 <= 1
 0 <= x_3,8,4#158 <= 1
 0 <= x_3,9,4#159 <= 1
 0 <= x_3,0,3#160 <= 1
 0 <= x_3,1,3#161 <= 1
 0 <= x_3,2,3#162 <= 1
 0 <= x_3,3,3#163 <= 1
 0 <= x_3,4,3#164 <= 1
 0 <= x_3,5,3#165 <= 1
 0 <= x_3,6,3#166 <= 1
 0 <= x_3,7,3#167 <= 1
 0 <= x_3,8,3#168 <= 1
 0 <= x_3,9,3#169 <= 1
 0 <= x_3,0,5#170 <= 1
 0 <= x_3,1,5#171 <= 1
 0 <= x_3,2,5#172 <= 1
 0 <= x_3,3,5#173 <= 1
 0 <= x_3,4,5#174 <= 1
 0 <= x_3,5,5#175 <= 1
 0 <= x_3,6,5#176 <= 1
 0 <= x_3,7,5#177 <= 1
 0 <= x_3,8,5#178 <= 1
 0 <= x_3,9,5#179 <= 1
 0 <= x_4,0,4#180 <= 1
 0 <= x_4,1,4#181 <= 1
 0 <= x_4,2,4#182 <= 1
 0 <= x_4,3,4#183 <= 1
 0 <= x_4,4,4#184 <= 1
 0 <= x_4,5,4#185 <= 1
 0 <= x_4,6,4#186 <= 1
 0 <= x_4,7,4#187 <= 1
 0 <= x_4,8,4#188 <= 1
 0 <= x_4,9,4#189 <= 1
 0 <= x_4,0,3#190 <= 1
 0 <= x_4,1,3#191 <= 1
 0 <= x_4,2,3#192 <= 1
 0 <= x_4,3,3#193 <= 1
 0 <= x_4,4,3#194 <= 1
 0 <= x_4,5,3#195 <= 1
 0 <= x_4,6,3#196 <= 1
 0 <= x_4,7,3#197 <= 1
 0 <= x_4,8,3#198 <= 1
 0 <= x_4,9,3#199 <= 1
 0 <= x_4,0,5#200 <= 1
 0 <= x_4,1,5#201 <= 1
 0 <= x_4,2,5#202 <= 1
 0 <= x_4,3,5#203 <= 1
 0 <= x_4,4,5#204 <= 1
 0 <= x_4,5,5#205 <= 1
 0 <= x_4,6,5#206 <= 1
 0 <= x_4,7,5#207 <= 1
 0 <= x_4,8,5#208 <= 1
 0 <= x_4,9,5#209 <= 1
 0 <= x_5,0,4#210 <= 1
 0 <= x_5,1,4#211 <= 1
 0 <= x_5,2,4#212 <= 1
 0 <= x_5,3,4#213 <= 1
 0 <= x_5,4,4#214 <= 1
 0 <= x_5,5,4#215 <= 1
 0 <= x_5,6,4#216 <= 1
 0 <= x_5,7,4#217 <= 1
 0 <= x_5,8,4#218 <= 1
 0 <= x_5,9,4#219 <= 1
 0 <= x_5,0,3#220 <= 1
 0 <= x_5,1,3#221 <= 1
 0 <= x_5,2,3#222 <= 1
 0 <= x_5,3,3#223 <= 1
 0 <= x_5,4,3#224 <= 1
 0 <= x_5,5,3#225 <= 1
 0 <= x_5,6,3#226 <= 1
 0 <= x_5,7,3#227 <= 1
 0 <= x_5,8,3#228 <= 1
 0 <= x_5,9,3#229 <= 1
 0 <= x_5,0,5#230 <= 1
 0 <= x_5,1,5#231 <= 1
 0 <= x_5,2,5#232 <= 1
 0 <= x_5,3,5#233 <= 1
 0 <= x_5,4,5#234 <= 1
 0 <= x_5,5,5#235 <= 1
 0 <= x_5,6,5#236 <= 1
 0 <= x_5,7,5#237 <= 1
 0 <= x_5,8,5#238 <= 1
 0 <= x_5,9,5#239 <= 1
 0 <= x_6,0,4#240 <= 1
 0 <= x_6,1,4#241 <= 1
 0 <= x_6,2,4#242 <= 1
 0 <= x_6,3,4#243 <= 1
 0 <= x_6,4,4#244 <= 1
 0 <= x_6,5,4#245 <= 1
 0 <= x_6,6,4#246 <= 1
 0 <= x_6,7,4#247 <= 1
 0 <= x_6,8,4#248 <= 1
 0 <= x_6,9,4#249 <= 1
 0 <= x_6,0,3#250 <= 1
 0 <= x_6,1,3#251 <= 1
 0 <= x_6,2,3#252 <= 1
 0 <= x_6,3,3#253 <= 1
 0 <= x_6,4,3#254 <= 1
 0 <= x_6,5,3#255 <= 1
 0 <= x_6,6,3#256 <= 1
 0 <= x_6,7,3#257 <= 1
 0 <= x_6,8,3#258 <= 1
 0 <= x_6,9,3#259 <= 1
 0 <= x_6,0,5#260 <= 1
 0 <= x_6,1,5#261 <= 1
 0 <= x_6,2,5#262 <= 1
 0 <= x_6,3,5#263 <= 1
 0 <= x_6,4,5#264 <= 1
 0 <= x_6,5,5#265 <= 1
 0 <= x_6,6,5#266 <= 1
 0 <= x_6,7,5#267 <= 1
 0 <= x_6,8,5#268 <= 1
 0 <= x_6,9,5#269 <= 1
 0 <= x_7,0,4#270 <= 1
 0 <= x_7,1,4#271 <= 1
 0 <= x_7,2,4#272 <= 1
 0 <= x_7,3,4#273 <= 1
 0 <= x_7,4,4#274 <= 1
 0 <= x_7,5,4#275 <= 1
 0 <= x_7,6,4#276 <= 1
 0 <= x_7,7,4#277 <= 1
 0 <= x_7,8,4#278 <= 1
 0 <= x_7,9,4#279 <= 1
 0 <= x_7,0,3#280 <= 1
 0 <= x_7,1,3#281 <= 1
 0 <= x_7,2,3#282 <= 1
 0 <= x_7,3,3#283 <= 1
 0 <= x_7,4,3#284 <= 1
 0 <= x_7,5,3#285 <= 1
 0 <= x_7,6,3#286 <= 1
 0 <= x_7,7,3#287 <= 1
 0 <= x_7,8,3#288 <= 1
 0 <= x_7,9,3#289 <= 1
 0 <= x_7,0,5#290 <= 1
 0 <= x_7,1,5#291 <= 1
 0 <= x_7,2,5#292 <= 1
 0 <= x_7,3,5#293 <= 1
 0 <= x_7,4,5#294 <= 1
 0 <= x_7,5,5#295 <= 1
 0 <= x_7,6,5#296 <= 1
 0 <= x_7,7,5#297 <= 1
 0 <= x_7,8,5#298 <= 1
 0 <= x_7,9,5#299 <= 1
 0 <= x_8,0,4#300 <= 1
 0 <= x_8,1,4#301 <= 1
 0 <= x_8,2,4#302 <= 1
 0 <= x_8,3,4#303 <= 1
 0 <= x_8,4,4#304 <= 1
 0 <= x_8,5,4#305 <= 1
 0 <= x_8,6,4#306 <= 1
 0 <= x_8,7,4#307 <= 1
 0 <= x_8,8,4#308 <= 1
 0 <= x_8,9,4#309 <= 1
 0 <= x_8,0,3#310 <= 1
 0 <= x_8,1,3#311 <= 1
 0 <= x_8,2,3#312 <= 1
 0 <= x_8,3,3#313 <= 1
 0 <= x_8,4,3#314 <= 1
 0 <= x_8,5,3#315 <= 1
 0 <= x_8,6,3#316 <= 1
 0 <= x_8,7,3#317 <= 1
 0 <= x_8,8,3#318 <= 1
 0 <= x_8,9,3#319 <= 1
 0 <= x_8,0,5#320 <= 1
 0 <= x_8,1,5#321 <= 1
 0 <= x_8,2,5#322 <= 1
 0 <= x_8,3,5#323 <= 1
 0 <= x_8,4,5#324 <= 1
 0 <= x_8,5,5#325 <= 1
 0 <= x_8,6,5#326 <= 1
 0 <= x_8,7,5#327 <= 1
 0 <= x_8,8,5#328 <= 1
 0 <= x_8,9,5#329 <= 1
 0 <= x_9,0,4#330 <= 1
 0 <= x_9,1,4#331 <= 1
 0 <= x_9,2,4#332 <= 1
 0 <= x_9,3,4#333 <= 1
 0 <= x_9,4,4#334 <= 1
 0 <= x_9,5,4#335 <= 1
 0 <= x_9,6,4#336 <= 1
 0 <= x_9,7,4#337 <= 1
 0 <= x_9,8,4#338 <= 1
 0 <= x_9,9,4#339 <= 1
 0 <= x_9,0,3#340 <= 1
 0 <= x_9,1,3#341 <= 1
 0 <= x_9,2,3#342 <= 1
 0 <= x_9,3,3#343 <= 1
 0 <= x_9,4,3#344 <= 1
 0 <= x_9,5,3#345 <= 1
 0 <= x_9,6,3#346 <= 1
 0 <= x_9,7,3#347 <= 1
 0 <= x_9,8,3#348 <= 1
 0 <= x_9,9,3#349 <= 1
 0 <= x_9,0,5#350 <= 1
 0 <= x_9,1,5#351 <= 1
 0 <= x_9,2,5#352 <= 1
 0 <= x_9,3,5#353 <= 1
 0 <= x_9,4,5#354 <= 1
 0 <= x_9,5,5#355 <= 1
 0 <= x_9,6,5#356 <= 1
 0 <= x_9,7,5#357 <= 1
 0 <= x_9,8,5#358 <= 1
 0 <= x_9,9,5#359 <= 1
 0 <= y_0,0,4#360 <= 1
 0 <= y_0,1,4#361 <= 1
 0 <= y_0,2,4#362 <= 1
 0 <= y_0,3,4#363 <= 1
 0 <= y_0,4,4#364 <= 1
 0 <= y_0,5,4#365 <= 1
 0 <= y_0,6,4#366 <= 1
 0 <= y_0,7,4#367 <= 1
 0 <= y_0,8,4#368 <= 1
 0 <= y_0,9,4#369 <= 1
 0 <= y_0,0,3#370 <= 1
 0 <= y_0,1,3#371 <= 1
 0 <= y_0,2,3#372 <= 1
 0 <= y_0,3,3#373 <= 1
 0 <= y_0,4,3#374 <= 1
 0 <= y_0,5,3#375 <= 1
 0 <= y_0,6,3#376 <= 1
 0 <= y_0,7,3#377 <= 1
 0 <= y_0,8,3#378 <= 1
 0 <= y_0,9,3#379 <= 1
 0 <= y_0,0,5#380 <= 1
 0 <= y_0,1,5#381 <= 1
 0 <= y_0,2,5#382 <= 1
 0 <= y_0,3,5#383 <= 1
 0 <= y_0,4,5#384 <= 1
 0 <= y_0,5,5#385 <= 1
 0 <= y_0,6,5#386 <= 1
 0 <= y_0,7,5#387 <= 1
 0 <= y_0,8,5#388 <= 1
 0 <= y_0,9,5#389 <= 1
 0 <= u_0,0#390 <= 1
 0 <= u_0,2#391 <= 1
 0 <= u_0,6#392 <= 1
 0 <= u_0,1#393 <= 1
 0 <= u_1,0#394 <= 1
 0 <= u_1,2#395 <= 1
 0 <= u_1,6#396 <= 1
 0 <= u_1,1#397 <= 1
 0 <= u_2,0#398 <= 1
 0 <= u_2,2#399 <= 1
 0 <= u_2,6#400 <= 1
 0 <= u_2,1#401 <= 1
 0 <= u_3,0#402 <= 1
 0 <= u_3,2#403 <= 1
 0 <= u_3,6#404 <= 1
 0 <= u_3,1#405 <= 1
 0 <= u_4,0#406 <= 1
 0 <= u_4,2#407 <= 1
 0 <= u_4,6#408 <= 1
 0 <= u_4,1#409 <= 1
 0 <= u_5,0#410 <= 1
 0 <= u_5,2#411 <= 1
 0 <= u_5,6#412 <= 1
 0 <= u_5,1#413 <= 1
 0 <= u_6,0#414 <= 1
 0 <= u_6,2#415 <= 1
 0 <= u_6,6#416 <= 1
 0 <= u_6,1#417 <= 1
 0 <= u_7,0#418 <= 1
 0 <= u_7,2#419 <= 1
 0 <= u_7,6#420 <= 1
 0 <= u_7,1#421 <= 1
 0 <= u_8,0#422 <= 1
 0 <= u_8,2#423 <= 1
 0 <= u_8,6#424 <= 1
 0 <= u_8,1#425 <= 1
 0 <= u_9,0#426 <= 1
 0 <= u_9,2#427 <= 1
 0 <= u_9,6#428 <= 1
 0 <= u_9,1#429 <= 1
 0 <= _e_0,1,2#460 <= 1
 0 <= _e_0,1,3#461 <= 1
 0 <= _e_0,2,2#462 <= 1
 0 <= _e_0,2,3#463 <= 1
 0 <= _e_0,3,2#464 <= 1
 0 <= _e_0,3,3#465 <= 1
 0 <= _e_0,4,2#466 <= 1
 0 <= _e_0,4,3#467 <= 1
 0 <= _e_0,5,2#468 <= 1
 0 <= _e_0,5,3#469 <= 1
 0 <= _e_0,6,2#470 <= 1
 0 <= _e_0,6,3#471 <= 1
 0 <= _e_0,7,2#472 <= 1
 0 <= _e_0,7,3#473 <= 1
 0 <= _e_0,8,2#474 <= 1
 0 <= _e_0,8,3#475 <= 1
 0 <= _e_0,9,2#476 <= 1
 0 <= _e_0,9,3#477 <= 1
 0 <= _e_1,0,2#478 <= 1
 0 <= _e_1,0,3#479 <= 1
 0 <= _e_1,2,2#480 <= 1
 0 <= _e_1,2,3#481 <= 1
 0 <= _e_1,3,2#482 <= 1
 0 <= _e_1,3,3#483 <= 1
 0 <= _e_1,4,2#484 <= 1
 0 <= _e_1,4,3#485 <= 1
 0 <= _e_1,5,2#486 <= 1
 0 <= _e_1,5,3#487 <= 1
 0 <= _e_1,6,2#488 <= 1
 0 <= _e_1,6,3#489 <= 1
 0 <= _e_1,7,2#490 <= 1
 0 <= _e_1,7,3#491 <= 1
 0 <= _e_1,8,2#492 <= 1
 0 <= _e_1,8,3#493 <= 1
 0 <= _e_1,9,2#494 <= 1
 0 <= _e_1,9,3#495 <= 1
 0 <= _e_2,0,2#496 <= 1
 0 <= _e_2,0,3#497 <= 1
 0 <= _e_2,1,2#498 <= 1
 0 <= _e_2,1,3#499 <= 1
 0 <= _e_2,3,2#500 <= 1
 0 <= _e_2,3,3#501 <= 1
 0 <= _e_2,4,2#502 <= 1
 0 <= _e_2,4,3#503 <= 1
 0 <= _e_2,5,2#504 <= 1
 0 <= _e_2,5,3#505 <= 1
 0 <= _e_2,6,2#506 <= 1
 0 <= _e_2,6,3#507 <= 1
 0 <= _e_2,7,2#508 <= 1
 0 <= _e_2,7,3#509 <= 1
 0 <= _e_2,8,2#510 <= 1
 0 <= _e_2,8,3#511 <= 1
 0 <= _e_2,9,2#512 <= 1
 0 <= _e_2,9,3#513 <= 1
 0 <= _e_3,0,2#514 <= 1
 0 <= _e_3,0,3#515 <= 1
 0 <= _e_3,1,2#516 <= 1
 0 <= _e_3,1,3#517 <= 1
 0 <= _e_3,2,2#518 <= 1
 0 <= _e_3,2,3#519 <= 1
 0 <= _e_3,4,2#520 <= 1
 0 <= _e_3,4,3#521 <= 1
 0 <= _e_3,5,2#522 <= 1
 0 <= _e_3,5,3#523 <= 1
 0 <= _e_3,6,2#524 <= 1
 0 <= _e_3,6,3#525 <= 1
 0 <= _e_3,7,2#526 <= 1
 0 <= _e_3,7,3#527 <= 1
 0 <= _e_3,8,2#528 <= 1
 0 <= _e_3,8,3#529 <= 1
 0 <= _e_3,9,2#530 <= 1
 0 <= _e_3,9,3#531 <= 1
 0 <= _e_4,0,2#532 <= 1
 0 <= _e_4,0,3#533 <= 1
 0 <= _e_4,1,2#534 <= 1
 0 <= _e_4,1,3#535 <= 1
 0 <= _e_4,2,2#536 <= 1
 0 <= _e_4,2,3#537 <= 1
 0 <= _e_4,3,2#538 <= 1
 0 <= _e_4,3,3#539 <= 1
 0 <= _e_4,5,2#540 <= 1
 0 <= _e_4,5,3#541 <= 1
 0 <= _e_4,6,2#542 <= 1
 0 <= _e_4,6,3#543 <= 1
 0 <= _e_4,7,2#544 <= 1
 0 <= _e_4,7,3#545 <= 1
 0 <= _e_4,8,2#546 <= 1
 0 <= _e_4,8,3#547 <= 1
 0 <= _e_4,9,2#548 <= 1
 0 <= _e_4,9,3#549 <= 1
 0 <= _e_5,0,2#550 <= 1
 0 <= _e_5,0,3#551 <= 1
 0 <= _e_5,1,2#552 <= 1
 0 <= _e_5,1,3#553 <= 1
 0 <= _e_5,2,2#554 <= 1
 0 <= _e_5,2,3#555 <= 1
 0 <= _e_5,3,2#556 <= 1
 0 <= _e_5,3,3#557 <= 1
 0 <= _e_5,4,2#558 <= 1
 0 <= _e_5,4,3#559 <= 1
 0 <= _e_5,6,2#560 <= 1
 0 <= _e_5,6,3#561 <= 1
 0 <= _e_5,7,2#562 <= 1
 0 <= _e_5,7,3#563 <= 1
 0 <= _e_5,8,2#564 <= 1
 0 <= _e_5,8,3#565 <= 1
 0 <= _e_5,9,2#566 <= 1
 0 <= _e_5,9,3#567 <= 1
 0 <= _e_6,0,2#568 <= 1
 0 <= _e_6,0,3#569 <= 1
 0 <= _e_6,1,2#570 <= 1
 0 <= _e_6,1,3#571 <= 1
 0 <= _e_6,2,2#572 <= 1
 0 <= _e_6,2,3#573 <= 1
 0 <= _e_6,3,2#574 <= 1
 0 <= _e_6,3,3#575 <= 1
 0 <= _e_6,4,2#576 <= 1
 0 <= _e_6,4,3#577 <= 1
 0 <= _e_6,5,2#578 <= 1
 0 <= _e_6,5,3#579 <= 1
 0 <= _e_6,7,2#580 <= 1
 0 <= _e_6,7,3#581 <= 1
 0 <= _e_6,8,2#582 <= 1
 0 <= _e_6,8,3#583 <= 1
 0 <= _e_6,9,2#584 <= 1
 0 <= _e_6,9,3#585 <= 1
 0 <= _e_7,0,2#586 <= 1
 0 <= _e_7,0,3#587 <= 1
 0 <= _e_7,1,2#588 <= 1
 0 <= _e_7,1,3#589 <= 1
 0 <= _e_7,2,2#590 <= 1
 0 <= _e_7,2,3#591 <= 1
 0 <= _e_7,3,2#592 <= 1
 0 <= _e_7,3,3#593 <= 1
 0 <= _e_7,4,2#594 <= 1
 0 <= _e_7,4,3#595 <= 1
 0 <= _e_7,5,2#596 <= 1
 0 <= _e_7,5,3#597 <= 1
 0 <= _e_7,6,2#598 <= 1
 0 <= _e_7,6,3#599 <= 1
 0 <= _e_7,8,2#600 <= 1
 0 <= _e_7,8,3#601 <= 1
 0 <= _e_7,9,2#602 <= 1
 0 <= _e_7,9,3#603 <= 1
 0 <= _e_8,0,2#604 <= 1
 0 <= _e_8,0,3#605 <= 1
 0 <= _e_8,1,2#606 <= 1
 0 <= _e_8,1,3#607 <= 1
 0 <= _e_8,2,2#608 <= 1
 0 <= _e_8,2,3#609 <= 1
 0 <= _e_8,3,2#610 <= 1
 0 <= _e_8,3,3#611 <= 1
 0 <= _e_8,4,2#612 <= 1
 0 <= _e_8,4,3#613 <= 1
 0 <= _e_8,5,2#614 <= 1
 0 <= _e_8,5,3#615 <= 1
 0 <= _e_8,6,2#616 <= 1
 0 <= _e_8,6,3#617 <= 1
 0 <= _e_8,7,2#618 <= 1
 0 <= _e_8,7,3#619 <= 1
 0 <= _e_8,9,2#620 <= 1
 0 <= _e_8,9,3#621 <= 1
 0 <= _e_9,0,2#622 <= 1
 0 <= _e_9,0,3#623 <= 1
 0 <= _e_9,1,2#624 <= 1
 0 <= _e_9,1,3#625 <= 1
 0 <= _e_9,2,2#626 <= 1
 0 <= _e_9,2,3#627 <= 1
 0 <= _e_9,3,2#628 <= 1
 0 <= _e_9,3,3#629 <= 1
 0 <= _e_9,4,2#630 <= 1
 0 <= _e_9,4,3#631 <= 1
 0 <= _e_9,5,2#632 <= 1
 0 <= _e_9,5,3#633 <= 1
 0 <= _e_9,6,2#634 <= 1
 0 <= _e_9,6,3#635 <= 1
 0 <= _e_9,7,2#636 <= 1
 0 <= _e_9,7,3#637 <= 1
 0 <= _e_9,8,2#638 <= 1
 0 <= _e_9,8,3#639 <= 1
 0 <= _e_0,0,2#640 <= 1
 0 <= _e_0,0,3#641 <= 1
 0 <= _e_1,1,2#642 <= 1
 0 <= _e_1,1,3#643 <= 1
 0 <= _e_2,2,2#644 <= 1
 0 <= _e_2,2,3#645 <= 1
 0 <= _e_3,3,2#646 <= 1
 0 <= _e_3,3,3#647 <= 1
 0 <= _e_4,4,2#648 <= 1
 0 <= _e_4,4,3#649 <= 1
 0 <= _e_5,5,2#650 <= 1
 0 <= _e_5,5,3#651 <= 1
 0 <= _e_6,6,2#652 <= 1
 0 <= _e_6,6,3#653 <= 1
 0 <= _e_7,7,2#654 <= 1
 0 <= _e_7,7,3#655 <= 1
 0 <= _e_8,8,2#656 <= 1
 0 <= _e_8,8,3#657 <= 1
 0 <= _e_9,9,2#658 <= 1
 0 <= _e_9,9,3#659 <= 1
Binaries
 x_0,0,4#60  x_0,1,4#61  x_0,2,4#62  x_0,3,4#63  x_0,4,4#64  x_0,5,4#65 
 x_0,6,4#66  x_0,7,4#67  x_0,8,4#68  x_0,9,4#69  x_0,0,3#70  x_0,1,3#71 
 x_0,2,3#72  x_0,3,3#73  x_0,4,3#74  x_0,5,3#75  x_0,6,3#76  x_0,7,3#77 
 x_0,8,3#78  x_0,9,3#79  x_0,0,5#80  x_0,1,5#81  x_0,2,5#82  x_0,3,5#83 
 x_0,4,5#84  x_0,5,5#85  x_0,6,5#86  x_0,7,5#87  x_0,8,5#88  x_0,9,5#89 
 x_1,0,4#90  x_1,1,4#91  x_1,2,4#92  x_1,3,4#93  x_1,4,4#94  x_1,5,4#95 
 x_1,6,4#96  x_1,7,4#97  x_1,8,4#98  x_1,9,4#99  x_1,0,3#100  x_1,1,3#101 
 x_1,2,3#102  x_1,3,3#103  x_1,4,3#104  x_1,5,3#105  x_1,6,3#106  x_1,7,3#107 
 x_1,8,3#108  x_1,9,3#109  x_1,0,5#110  x_1,1,5#111  x_1,2,5#112  x_1,3,5#113 
 x_1,4,5#114  x_1,5,5#115  x_1,6,5#116  x_1,7,5#117  x_1,8,5#118  x_1,9,5#119 
 x_2,0,4#120  x_2,1,4#121  x_2,2,4#122  x_2,3,4#123  x_2,4,4#124  x_2,5,4#125 
 x_2,6,4#126  x_2,7,4#127  x_2,8,4#128  x_2,9,4#129  x_2,0,3#130  x_2,1,3#131 
 x_2,2,3#132  x_2,3,3#133  x_2,4,3#134  x_2,5,3#135  x_2,6,3#136  x_2,7,3#137 
 x_2,8,3#138  x_2,9,3#139  x_2,0,5#140  x_2,1,5#141  x_2,2,5#142  x_2,3,5#143 
 x_2,4,5#144  x_2,5,5#145  x_2,6,5#146  x_2,7,5#147  x_2,8,5#148  x_2,9,5#149 
 x_3,0,4#150  x_3,1,4#151  x_3,2,4#152  x_3,3,4#153  x_3,4,4#154  x_3,5,4#155 
 x_3,6,4#156  x_3,7,4#157  x_3,8,4#158  x_3,9,4#159  x_3,0,3#160  x_3,1,3#161 
 x_3,2,3#162  x_3,3,3#163  x_3,4,3#164  x_3,5,3#165  x_3,6,3#166  x_3,7,3#167 
 x_3,8,3#168  x_3,9,3#169  x_3,0,5#170  x_3,1,5#171  x_3,2,5#172  x_3,3,5#173 
 x_3,4,5#174  x_3,5,5#175  x_3,6,5#176  x_3,7,5#177  x_3,8,5#178  x_3,9,5#179 
 x_4,0,4#180  x_4,1,4#181  x_4,2,4#182  x_4,3,4#183  x_4,4,4#184  x_4,5,4#185 
 x_4,6,4#186  x_4,7,4#187  x_4,8,4#188  x_4,9,4#189  x_4,0,3#190  x_4,1,3#191 
 x_4,2,3#192  x_4,3,3#193  x_4,4,3#194  x_4,5,3#195  x_4,6,3#196  x_4,7,3#197 
 x_4,8,3#198  x_4,9,3#199  x_4,0,5#200  x_4,1,5#201  x_4,2,5#202  x_4,3,5#203 
 x_4,4,5#204  x_4,5,5#205  x_4,6,5#206  x_4,7,5#207  x_4,8,5#208  x_4,9,5#209 
 x_5,0,4#210  x_5,1,4#211  x_5,2,4#212  x_5,3,4#213  x_5,4,4#214  x_5,5,4#215 
 x_5,6,4#216  x_5,7,4#217  x_5,8,4#218  x_5,9,4#219  x_5,0,3#220  x_5,1,3#221 
 x_5,2,3#222  x_5,3,3#223  x_5,4,3#224  x_5,5,3#225  x_5,6,3#226  x_5,7,3#227 
 x_5,8,3#228  x_5,9,3#229  x_5,0,5#230  x_5,1,5#231  x_5,2,5#232  x_5,3,5#233 
 x_5,4,5#234  x_5,5,5#235  x_5,6,5#236  x_5,7,5#237  x_5,8,5#238  x_5,9,5#239 
 x_6,0,4#240  x_6,1,4#241  x_6,2,4#242  x_6,3,4#243  x_6,4,4#244  x_6,5,4#245 
 x_6,6,4#246  x_6,7,4#247  x_6,8,4#248  x_6,9,4#249  x_6,0,3#250  x_6,1,3#251 
 x_6,2,3#252  x_6,3,3#253  x_6,4,3#254  x_6,5,3#255  x_6,6,3#256  x_6,7,3#257 
 x_6,8,3#258  x_6,9,3#259  x_6,0,5#260  x_6,1,5#261  x_6,2,5#262  x_6,3,5#263 
 x_6,4,5#264  x_6,5,5#265  x_6,6,5#266  x_6,7,5#267  x_6,8,5#268  x_6,9,5#269 
 x_7,0,4#270  x_7,1,4#271  x_7,2,4#272  x_7,3,4#273  x_7,4,4#274  x_7,5,4#275 
 x_7,6,4#276  x_7,7,4#277  x_7,8,4#278  x_7,9,4#279  x_7,0,3#280  x_7,1,3#281 
 x_7,2,3#282  x_7,3,3#283  x_7,4,3#284  x_7,5,3#285  x_7,6,3#286  x_7,7,3#287 
 x_7,8,3#288  x_7,9,3#289  x_7,0,5#290  x_7,1,5#291  x_7,2,5#292  x_7,3,5#293 
 x_7,4,5#294  x_7,5,5#295  x_7,6,5#296  x_7,7,5#297  x_7,8,5#298  x_7,9,5#299 
 x_8,0,4#300  x_8,1,4#301  x_8,2,4#302  x_8,3,4#303  x_8,4,4#304  x_8,5,4#305 
 x_8,6,4#306  x_8,7,4#307  x_8,8,4#308  x_8,9,4#309  x_8,0,3#310  x_8,1,3#311 
 x_8,2,3#312  x_8,3,3#313  x_8,4,3#314  x_8,5,3#315  x_8,6,3#316  x_8,7,3#317 
 x_8,8,3#318  x_8,9,3#319  x_8,0,5#320  x_8,1,5#321  x_8,2,5#322  x_8,3,5#323 
 x_8,4,5#324  x_8,5,5#325  x_8,6,5#326  x_8,7,5#327  x_8,8,5#328  x_8,9,5#329 
 x_9,0,4#330  x_9,1,4#331  x_9,2,4#332  x_9,3,4#333  x_9,4,4#334  x_9,5,4#335 
 x_9,6,4#336  x_9,7,4#337  x_9,8,4#338  x_9,9,4#339  x_9,0,3#340  x_9,1,3#341 
 x_9,2,3#342  x_9,3,3#343  x_9,4,3#344  x_9,5,3#345  x_9,6,3#346  x_9,7,3#347 
 x_9,8,3#348  x_9,9,3#349  x_9,0,5#350  x_9,1,5#351  x_9,2,5#352  x_9,3,5#353 
 x_9,4,5#354  x_9,5,5#355  x_9,6,5#356  x_9,7,5#357  x_9,8,5#358  x_9,9,5#359 
 y_0,0,4#360  y_0,1,4#361  y_0,2,4#362  y_0,3,4#363  y_0,4,4#364  y_0,5,4#365 
 y_0,6,4#366  y_0,7,4#367  y_0,8,4#368  y_0,9,4#369  y_0,0,3#370  y_0,1,3#371 
 y_0,2,3#372  y_0,3,3#373  y_0,4,3#374  y_0,5,3#375  y_0,6,3#376  y_0,7,3#377 
 y_0,8,3#378  y_0,9,3#379  y_0,0,5#380  y_0,1,5#381  y_0,2,5#382  y_0,3,5#383 
 y_0,4,5#384  y_0,5,5#385  y_0,6,5#386  y_0,7,5#387  y_0,8,5#388  y_0,9,5#389 
 u_0,0#390  u_0,2#391  u_0,6#392  u_0,1#393  u_1,0#394  u_1,2#395  u_1,6#396 
 u_1,1#397  u_2,0#398  u_2,2#399  u_2,6#400  u_2,1#401  u_3,0#402  u_3,2#403 
 u_3,6#404  u_3,1#405  u_4,0#406  u_4,2#407  u_4,6#408  u_4,1#409  u_5,0#410 
 u_5,2#411  u_5,6#412  u_5,1#413  u_6,0#414  u_6,2#415  u_6,6#416  u_6,1#417 
 u_7,0#418  u_7,2#419  u_7,6#420  u_7,1#421  u_8,0#422  u_8,2#423  u_8,6#424 
 u_8,1#425  u_9,0#426  u_9,2#427  u_9,6#428  u_9,1#429  _e_0,1,2#460 
 _e_0,1,3#461  _e_0,2,2#462  _e_0,2,3#463  _e_0,3,2#464  _e_0,3,3#465 
 _e_0,4,2#466  _e_0,4,3#467  _e_0,5,2#468  _e_0,5,3#469  _e_0,6,2#470 
 _e_0,6,3#471  _e_0,7,2#472  _e_0,7,3#473  _e_0,8,2#474  _e_0,8,3#475 
 _e_0,9,2#476  _e_0,9,3#477  _e_1,0,2#478  _e_1,0,3#479  _e_1,2,2#480 
 _e_1,2,3#481  _e_1,3,2#482  _e_1,3,3#483  _e_1,4,2#484  _e_1,4,3#485 
 _e_1,5,2#486  _e_1,5,3#487  _e_1,6,2#488  _e_1,6,3#489  _e_1,7,2#490 
 _e_1,7,3#491  _e_1,8,2#492  _e_1,8,3#493  _e_1,9,2#494  _e_1,9,3#495 
 _e_2,0,2#496  _e_2,0,3#497  _e_2,1,2#498  _e_2,1,3#499  _e_2,3,2#500 
 _e_2,3,3#501  _e_2,4,2#502  _e_2,4,3#503  _e_2,5,2#504  _e_2,5,3#505 
 _e_2,6,2#506  _e_2,6,3#507  _e_2,7,2#508  _e_2,7,3#509  _e_2,8,2#510 
 _e_2,8,3#511  _e_2,9,2#512  _e_2,9,3#513  _e_3,0,2#514  _e_3,0,3#515 
 _e_3,1,2#516  _e_3,1,3#517  _e_3,2,2#518  _e_3,2,3#519  _e_3,4,2#520 
 _e_3,4,3#521  _e_3,5,2#522  _e_3,5,3#523  _e_3,6,2#524  _e_3,6,3#525 
 _e_3,7,2#526  _e_3,7,3#527  _e_3,8,2#528  _e_3,8,3#529  _e_3,9,2#530 
 _e_3,9,3#531  _e_4,0,2#532  _e_4,0,3#533  _e_4,1,2#534  _e_4,1,3#535 
 _e_4,2,2#536  _e_4,2,3#537  _e_4,3,2#538  _e_4,3,3#539  _e_4,5,2#540 
 _e_4,5,3#541  _e_4,6,2#542  _e_4,6,3#543  _e_4,7,2#544  _e_4,7,3#545 
 _e_4,8,2#546  _e_4,8,3#547  _e_4,9,2#548  _e_4,9,3#549  _e_5,0,2#550 
 _e_5,0,3#551  _e_5,1,2#552  _e_5,1,3#553  _e_5,2,2#554  _e_5,2,3#555 
 _e_5,3,2#556  _e_5,3,3#557  _e_5,4,2#558  _e_5,4,3#559  _e_5,6,2#560 
 _e_5,6,3#561  _e_5,7,2#562  _e_5,7,3#563  _e_5,8,2#564  _e_5,8,3#565 
 _e_5,9,2#566  _e_5,9,3#567  _e_6,0,2#568  _e_6,0,3#569  _e_6,1,2#570 
 _e_6,1,3#571  _e_6,2,2#572  _e_6,2,3#573  _e_6,3,2#574  _e_6,3,3#575 
 _e_6,4,2#576  _e_6,4,3#577  _e_6,5,2#578  _e_6,5,3#579  _e_6,7,2#580 
 _e_6,7,3#581  _e_6,8,2#582  _e_6,8,3#583  _e_6,9,2#584  _e_6,9,3#585 
 _e_7,0,2#586  _e_7,0,3#587  _e_7,1,2#588  _e_7,1,3#589  _e_7,2,2#590 
 _e_7,2,3#591  _e_7,3,2#592  _e_7,3,3#593  _e_7,4,2#594  _e_7,4,3#595 
 _e_7,5,2#596  _e_7,5,3#597  _e_7,6,2#598  _e_7,6,3#599  _e_7,8,2#600 
 _e_7,8,3#601  _e_7,9,2#602  _e_7,9,3#603  _e_8,0,2#604  _e_8,0,3#605 
 _e_8,1,2#606  _e_8,1,3#607  _e_8,2,2#608  _e_8,2,3#609  _e_8,3,2#610 
 _e_8,3,3#611  _e_8,4,2#612  _e_8,4,3#613  _e_8,5,2#614  _e_8,5,3#615 
 _e_8,6,2#616  _e_8,6,3#617  _e_8,7,2#618  _e_8,7,3#619  _e_8,9,2#620 
 _e_8,9,3#621  _e_9,0,2#622  _e_9,0,3#623  _e_9,1,2#624  _e_9,1,3#625 
 _e_9,2,2#626  _e_9,2,3#627  _e_9,3,2#628  _e_9,3,3#629  _e_9,4,2#630 
 _e_9,4,3#631  _e_9,5,2#632  _e_9,5,3#633  _e_9,6,2#634  _e_9,6,3#635 
 _e_9,7,2#636  _e_9,7,3#637  _e_9,8,2#638  _e_9,8,3#639  _e_0,0,2#640 
 _e_0,0,3#641  _e_1,1,2#642  _e_1,1,3#643  _e_2,2,2#644  _e_2,2,3#645 
 _e_3,3,2#646  _e_3,3,3#647  _e_4,4,2#648  _e_4,4,3#649  _e_5,5,2#650 
 _e_5,5,3#651  _e_6,6,2#652  _e_6,6,3#653  _e_7,7,2#654  _e_7,7,3#655 
 _e_8,8,2#656  _e_8,8,3#657  _e_9,9,2#658  _e_9,9,3#659 
End
